#C2

8 atoms
2 atom types

7 bonds
2 bond types

12 angles
2 angle types

9 dihedrals
1 dihedral types

4 impropers
1 improper types

6.92660201084827e-07  1.78680456117313  xlo xhi
-1.52593709033862  0.523426970348915  ylo yhi
0.000147514493769985  2.27814751449446  zlo zhi

Masses

1  12.011
2  1.008

Pair Coeffs

1  0.066  3.5
2  0.03  2.5

Bond Coeffs

1  268.0  1.529
2  340.0  1.09

Angle Coeffs

1  37.5  110.7
2  33.0  107.8

Dihedral Coeffs

1  0.0  0.0  0.3  0.0

Improper Coeffs

1  0.0  -1.0  2.0

Atoms # full

1  1  1  -0.2396   0.893668321723763   -0.501231991182143    0.383147514494113 
2  1  1  -0.2396   0.89366832172376   -0.50123199118265    1.89514751449411 
3  1  2   0.0799   6.92660201084827e-07    0.000113962091680686    0.000147514494279133 
4  1  2   0.0799   0.905463128311936   -1.52593709033862    0.000147514493769985 
5  1  2   0.0799   1.77429782037165    0.0228131910410145    0.000147514494290457 
6  1  2   0.0799   0.012361548514511   -1.02417485803871    2.27814751449394 
7  1  2   0.0799   0.880586358843769    0.523426970348915    2.27814751449446 
8  1  2   0.0799   1.78680456117313   -1.00377043138635    2.27814751449395 

Bonds

1  1  2  1
2  2  3  1
3  2  4  1
4  2  5  1
5  2  6  2
6  2  7  2
7  2  8  2

Angles

1  1  2  1  3
2  1  2  1  4
3  1  2  1  5
4  1  1  2  6
5  1  1  2  7
6  1  1  2  8
7  2  3  1  4
8  2  3  1  5
9  2  6  2  7
10  2  6  2  8
11  2  7  2  8
12  2  4  1  5

Dihedrals

1  1  6  2  1  3
2  1  7  2  1  5
3  1  6  2  1  5
4  1  8  2  1  4
5  1  8  2  1  3
6  1  8  2  1  5
7  1  7  2  1  3
8  1  6  2  1  4
9  1  7  2  1  4

Impropers

1  1  1  2  3  4
2  1  1  2  3  5
3  1  2  1  6  7
4  1  2  1  6  8
