#C2: Acetate

7 atoms
4 atom types

6 bonds
3 bond types

9 angles
4 angle types

6 dihedrals
1 dihedral types

3 impropers
2 improper types

-0.890522666494047  0.89123705357953  xlo xhi
-1.14182979772381  1.14717065986495  ylo yhi
-0.537999999999962  1.91600000000003  zlo zhi

Masses

1  12.011
2  12.011
3  15.999
4  1.008

Pair Coeffs

1  0.07  3.55
2  0.066  3.5
3  0.21  2.96
4  0.03  2.5

Bond Coeffs

1  317.0  1.522
2  656.0  1.25
3  340.0  1.09

Angle Coeffs

1  70.0  117.0
2  35.0  109.5
3  80.0  126.0
4  33.0  107.8

Dihedral Coeffs

1  0.0  0.0  0.0  0.0

Improper Coeffs

1  10.5  -1.0  2.0
2  0.0  -1.0  2.0

Atoms # full

1  1  1   0.4236   0    0    0 
2  1  2  -0.2835  -6.03002251756593e-15    5.01398304994233e-14    1.519 
3  1  3  -0.6379  -0.000679654349104674   -1.14182979772381   -0.537999999999962 
4  1  3  -0.6379  -0.000767166852361674    1.14717065986495   -0.528000000000038 
5  1  4   0.0452  -0.000606863364158532   -1.01953981938752    1.91600000000003 
6  1  4   0.0452  -0.890522666494047    0.516590159565985    1.88899999999998 
7  1  4   0.0452   0.89123705357953    0.515589598059279    1.88899999999999 

Bonds

1  1  2  1
2  2  3  1
3  2  4  1
4  3  5  2
5  3  6  2
6  3  7  2

Angles

1  1  2  1  3
2  1  2  1  4
3  2  1  2  5
4  2  1  2  6
5  2  1  2  7
6  3  3  1  4
7  4  5  2  6
8  4  5  2  7
9  4  6  2  7

Dihedrals

1  1  5  2  1  3
2  1  5  2  1  4
3  1  6  2  1  3
4  1  7  2  1  3
5  1  6  2  1  4
6  1  7  2  1  4

Impropers

1  1  1  2  3  4
2  2  2  1  5  6
3  2  2  1  5  7
