LAMMPS data file Created by LigParGen - (Written by Leela S. Dodda)

       8 atoms
       7 bonds
      12 angles
       9 dihedrals
       4 impropers
 
       8 atom types
       7 bond types
      12 angle types
       9 dihedral types
       4 improper types
 
   -0.895340    49.104660 xlo xhi
    0.112090    50.112090 ylo yhi
   -1.024690    48.975310 zlo zhi

Masses

       1     12.011  
       2     12.011  
       3      1.008  
       4      1.008  
       5      1.008  
       6      1.008  
       7      1.008  
       8      1.008  

Pair Coeffs 

       1      0.066  3.5000000 
       2      0.066  3.5000000 
       3      0.030  2.5000000 
       4      0.030  2.5000000 
       5      0.030  2.5000000 
       6      0.030  2.5000000 
       7      0.030  2.5000000 
       8      0.030  2.5000000 

Bond Coeffs 

       1   268.0000     1.5290 
       2   340.0000     1.0900 
       3   340.0000     1.0900 
       4   340.0000     1.0900 
       5   340.0000     1.0900 
       6   340.0000     1.0900 
       7   340.0000     1.0900 

Angle Coeffs 

       1     37.500    110.700
       2     37.500    110.700
       3     37.500    110.700
       4     37.500    110.700
       5     37.500    110.700
       6     37.500    110.700
       7     33.000    107.800
       8     33.000    107.800
       9     33.000    107.800
      10     33.000    107.800
      11     33.000    107.800
      12     33.000    107.800

Dihedral Coeffs  

       1      0.000      0.000      0.300      0.000 
       2      0.000      0.000      0.300      0.000 
       3      0.000      0.000      0.300      0.000 
       4      0.000      0.000      0.300      0.000 
       5      0.000      0.000      0.300      0.000 
       6      0.000      0.000      0.300      0.000 
       7      0.000      0.000      0.300      0.000 
       8      0.000      0.000      0.300      0.000 
       9      0.000      0.000      0.300      0.000 

Improper Coeffs 

       1      0.000      -1       2 
       2      0.000      -1       2 
       3      0.000      -1       2 
       4      0.000      -1       2 

Atoms 

     1      1      1 -0.23960000    1.000  1.00000  0.00000
     2      1      2 -0.23960000   -0.512  1.00000  0.00000
     3      1      3 0.07990000    1.383  1.00000 -1.02469
     4      1      4 0.07990000    1.383  0.11209  0.51164
     5      1      5 0.07990000    1.383  1.88790  0.51163
     6      1      6 0.07990000   -0.895  0.11273 -0.51276
     7      1      7 0.07990000   -0.895  1.88724 -0.51274
     8      1      8 0.07990000   -0.895  0.99870  1.02481

Bonds 

     1      1      2      1
     2      2      3      1
     3      3      4      1
     4      4      5      1
     5      5      6      2
     6      6      7      2
     7      7      8      2

Angles 

     1      1      2      1      3
     2      2      2      1      4
     3      3      2      1      5
     4      4      1      2      6
     5      5      1      2      7
     6      6      1      2      8
     7      7      3      1      4
     8      8      3      1      5
     9      9      6      2      7
    10     10      6      2      8
    11     11      7      2      8
    12     12      4      1      5

Dihedrals

     1      1      6      2      1      3 
     2      2      7      2      1      5 
     3      3      6      2      1      5 
     4      4      8      2      1      4 
     5      5      8      2      1      3 
     6      6      8      2      1      5 
     7      7      7      2      1      3 
     8      8      6      2      1      4 
     9      9      7      2      1      4 

Impropers

     1      1      1      2      3      4 
     2      2      1      2      3      5 
     3      3      2      1      6      7 
     4      4      2      1      6      8 

