#C18

56 atoms
2 atom types

55 bonds
2 bond types

108 angles
3 angle types

153 dihedrals
2 dihedral types

36 impropers
1 improper types

-0.889834665138132  0.893259139948502  xlo xhi
-2.10011369397727  0.830183208407696  ylo yhi
0.0204761863783377  23.1165121559963  zlo zhi

Masses

1  12.011
2  1.008

Pair Coeffs

1  0.066  3.5
2  0.03  2.5

Bond Coeffs

1  268.0  1.529
2  340.0  1.09

Angle Coeffs

1  58.35  112.7
2  37.5  110.7
3  33.0  107.8

Dihedral Coeffs

1  1.3  -0.2  0.2  0.0
2  0.0  0.0  0.3  0.0

Improper Coeffs

1  0.0  -1.0  2.0

Atoms # full

1  1  1  -0.2389  -0.00047743170610004   -0.636390973506265    0.891224968511718 
2  1  1  -0.1796   0.00242650324734647    0.177947874133673    2.17349046691142 
3  1  1  -0.1788   0.000103961765960565   -0.728941789432661    3.40098370449671 
4  1  1  -0.1795   0.00482127056356492    0.0891443258111461    4.68915764269101 
5  1  1  -0.1796   0.00426324376429269   -0.82552174686369    5.91092391342518 
6  1  1  -0.1796   0.00716703609718183   -0.0121026119377055    7.20088123400844 
7  1  1  -0.1797   0.00840392803839899   -0.931273877189297    8.41839685696123 
8  1  1  -0.1795   0.00950195385197666   -0.119761359183686    9.70838449580104 
9  1  1  -0.1796   0.00893420912040924   -1.04014717627623    10.9231216748899 
10  1  1  -0.1794   0.00823224327855456   -0.228629212290893    12.2131099315314 
11  1  1  -0.1797   0.00946697871699865   -1.1481341201438    13.4272835823174 
12  1  1  -0.1797   0.00696304613818675   -0.337459010676087    14.7189958204382 
13  1  1  -0.1796   0.00638337506682208   -1.25554841288666    15.9370131117892 
14  1  1  -0.1796   0.00568907212995422   -0.44159072553899    17.2278211801135 
15  1  1  -0.1795   0.00691619444400937   -1.35769740138516    18.4481290595607 
16  1  1  -0.1788   0.00439962623605063   -0.54098225537227    19.7371900529034 
17  1  1  -0.1795   0.0038125105314515   -1.44935873089351    20.9644389800631 
18  1  1  -0.2388  -0.000477431706100058   -0.636390973506257    22.2475915198823 
19  1  2   0.0807  -6.69285458887922e-05    0.0277415686119397    0.0204761863783377 
20  1  2   0.0807  -0.889834665138132   -1.27225448100286    0.835059526501032 
21  1  2   0.0807   0.88618252879414   -1.27569480964908    0.833222274274365 
22  1  2   0.0884  -0.87897851539353    0.830183208407696    2.19009933018162 
23  1  2   0.0884   0.887442821662171    0.824669966639589    2.18960027151102 
24  1  2   0.0895   0.88064219084356   -1.38258050436044    3.37697570623696 
25  1  2   0.0895  -0.885295988558753   -1.3762328723644    3.3793130117978 
26  1  2   0.0895  -0.876208820793289    0.74183077234954    4.71614076387475 
27  1  2   0.0895   0.890530231805465    0.735793054614411    4.71360482479683 
28  1  2   0.0896   0.886417398382853   -1.47690730554773    5.88429670314893 
29  1  2   0.0896  -0.880489648181092   -1.47342700778376    5.8860879401933 
30  1  2   0.0898  -0.875820022030546    0.637960281997699    7.23071957020984 
31  1  2   0.0898   0.891432355488444    0.636378288161594    7.22772197968122 
32  1  2   0.0898   0.891951552373372   -1.58113586995079    8.38842966329743 
33  1  2   0.0898  -0.875056522098049   -1.58129371316588    8.3901623889889 
34  1  2   0.0898  -0.873083486550658    0.531022002857158    9.73657974682146 
35  1  2   0.0898   0.893259139948502    0.529240302927157    9.73608028970761 
36  1  2   0.0898   0.892132601242518   -1.69002485691427    10.8955344792833 
37  1  2   0.0898  -0.874205863297296   -1.69003291677451    10.8948013202479 
38  1  2   0.0899  -0.875718681281508    0.420347499329444    12.2412710171615 
39  1  2   0.0899   0.891252434753258    0.421299098664102    12.2414035220983 
40  1  2   0.0897   0.892937921232418   -1.79724859582473    13.400395696711 
41  1  2   0.0897  -0.873248135853706   -1.79967153869955    13.39882658792 
42  1  2   0.0896  -0.876825880381951    0.312373958832793    14.7454281264226 
43  1  2   0.0896   0.889993948570697    0.312722514371855    14.747128576001 
44  1  2   0.0897   0.889882216100808   -1.90526661310067    15.9093239532202 
45  1  2   0.0897  -0.876926080359175   -1.90521416060714    15.9085534281329 
46  1  2   0.0896  -0.878434924480198    0.206871297969797    17.251571036639 
47  1  2   0.0896   0.888238610359492    0.208684835752268    17.2511568171987 
48  1  2   0.0895   0.892042904174121   -2.00490480631408    18.4212109071813 
49  1  2   0.0895  -0.874831262967235   -2.00992580326843    18.4189240800948 
50  1  2   0.0896  -0.880105956311912    0.107349870720747    19.7574694024294 
51  1  2   0.0896   0.886604064046885    0.110894093063239    19.7606944686003 
52  1  2   0.0884   0.888212706936573   -2.09662662563439    20.9482224873387 
53  1  2   0.0884  -0.877857150488209   -2.10011369397727    20.9449596741382 
54  1  2   0.0808   0.8854246616496    0.00404599198795441    22.3067833936198 
55  1  2   0.0808   0.000438851689097302   -1.30138026504412    23.1165121559963 
56  1  2   0.0808  -0.889325155535822    0.000585185369524344    22.3035235595964 

Bonds

1  1  2  1
2  1  3  2
3  1  4  3
4  1  5  4
5  1  6  5
6  1  7  6
7  1  8  7
8  1  9  8
9  1  10  9
10  1  11  10
11  1  12  11
12  1  13  12
13  1  14  13
14  1  15  14
15  1  16  15
16  1  17  16
17  1  18  17
18  2  19  1
19  2  20  1
20  2  21  1
21  2  22  2
22  2  23  2
23  2  24  3
24  2  25  3
25  2  26  4
26  2  27  4
27  2  28  5
28  2  29  5
29  2  30  6
30  2  31  6
31  2  32  7
32  2  33  7
33  2  34  8
34  2  35  8
35  2  36  9
36  2  37  9
37  2  38  10
38  2  39  10
39  2  40  11
40  2  41  11
41  2  42  12
42  2  43  12
43  2  44  13
44  2  45  13
45  2  46  14
46  2  47  14
47  2  48  15
48  2  49  15
49  2  50  16
50  2  51  16
51  2  52  17
52  2  53  17
53  2  54  18
54  2  55  18
55  2  56  18

Angles

1  1  1  2  3
2  1  2  3  4
3  1  3  4  5
4  1  4  5  6
5  1  5  6  7
6  1  6  7  8
7  1  7  8  9
8  1  8  9  10
9  1  9  10  11
10  1  10  11  12
11  1  11  12  13
12  1  12  13  14
13  1  13  14  15
14  1  14  15  16
15  1  15  16  17
16  1  16  17  18
17  2  2  1  19
18  2  2  1  20
19  2  2  1  21
20  2  1  2  22
21  2  1  2  23
22  2  2  3  24
23  2  2  3  25
24  2  3  4  26
25  2  3  4  27
26  2  4  5  28
27  2  4  5  29
28  2  5  6  30
29  2  5  6  31
30  2  6  7  32
31  2  6  7  33
32  2  7  8  34
33  2  7  8  35
34  2  8  9  36
35  2  8  9  37
36  2  9  10  38
37  2  9  10  39
38  2  10  11  40
39  2  10  11  41
40  2  11  12  42
41  2  11  12  43
42  2  12  13  44
43  2  12  13  45
44  2  13  14  46
45  2  13  14  47
46  2  14  15  48
47  2  14  15  49
48  2  15  16  50
49  2  15  16  51
50  2  16  17  52
51  2  16  17  53
52  2  17  18  54
53  2  17  18  55
54  2  17  18  56
55  2  15  14  47
56  2  11  10  38
57  2  12  11  40
58  3  50  16  51
59  3  19  1  21
60  2  4  3  24
61  3  46  14  47
62  3  34  8  35
63  2  17  16  50
64  3  20  1  21
65  2  5  4  27
66  2  7  6  31
67  3  24  3  25
68  2  14  13  45
69  2  5  4  26
70  2  8  7  33
71  2  9  8  34
72  2  8  7  32
73  2  15  14  46
74  3  48  15  49
75  3  38  10  39
76  2  6  5  28
77  2  13  12  42
78  3  42  12  43
79  3  32  7  33
80  3  44  13  45
81  3  52  17  53
82  2  4  3  25
83  3  26  4  27
84  2  18  17  52
85  3  54  18  55
86  3  22  2  23
87  2  13  12  43
88  3  28  5  29
89  3  36  9  37
90  3  54  18  56
91  2  18  17  53
92  3  55  18  56
93  2  7  6  30
94  2  16  15  48
95  3  30  6  31
96  2  11  10  39
97  2  3  2  22
98  2  3  2  23
99  2  9  8  35
100  2  16  15  49
101  2  10  9  37
102  2  10  9  36
103  3  40  11  41
104  3  19  1  20
105  2  6  5  29
106  2  17  16  51
107  2  12  11  41
108  2  14  13  44

Dihedrals

1  1  4  3  2  1
2  1  5  4  3  2
3  1  6  5  4  3
4  1  7  6  5  4
5  1  8  7  6  5
6  1  9  8  7  6
7  1  10  9  8  7
8  1  11  10  9  8
9  1  12  11  10  9
10  1  13  12  11  10
11  1  14  13  12  11
12  1  15  14  13  12
13  1  16  15  14  13
14  1  17  16  15  14
15  1  18  17  16  15
16  2  19  1  2  3
17  2  54  18  17  16
18  2  34  8  7  6
19  2  50  16  15  48
20  2  38  10  9  8
21  2  47  14  13  44
22  2  25  3  4  5
23  2  47  14  13  45
24  2  48  15  14  47
25  2  49  15  14  46
26  2  51  16  17  18
27  2  35  8  9  10
28  2  23  2  1  21
29  2  48  15  16  17
30  2  55  18  17  52
31  2  51  16  15  14
32  2  45  13  14  15
33  2  39  10  9  36
34  2  39  10  11  12
35  2  33  7  6  30
36  2  32  7  6  31
37  2  32  7  8  9
38  2  33  7  6  31
39  2  28  5  4  3
40  2  46  14  13  45
41  2  23  2  3  4
42  2  56  18  17  53
43  2  24  3  2  22
44  2  27  4  3  25
45  2  38  10  9  36
46  2  30  6  5  28
47  2  35  8  7  33
48  2  43  12  11  40
49  2  42  12  11  41
50  2  37  9  10  11
51  2  45  13  12  11
52  2  22  2  1  20
53  2  36  9  8  7
54  2  54  18  17  52
55  2  22  2  3  4
56  2  26  4  3  2
57  2  28  5  6  7
58  2  52  17  16  51
59  2  33  7  6  5
60  2  53  17  16  51
61  2  30  6  7  8
62  2  40  11  12  13
63  2  44  13  12  43
64  2  43  12  11  10
65  2  39  10  9  8
66  2  36  9  10  11
67  2  40  11  10  39
68  2  41  11  10  38
69  2  37  9  8  35
70  2  49  15  16  17
71  2  47  14  13  12
72  2  44  13  14  15
73  2  40  11  10  38
74  2  45  13  12  42
75  2  52  17  16  15
76  2  21  1  2  3
77  2  27  4  5  6
78  2  32  7  6  30
79  2  30  6  5  4
80  2  48  15  14  46
81  2  24  3  4  5
82  2  48  15  14  13
83  2  56  18  17  52
84  2  42  12  11  40
85  2  22  2  1  19
86  2  26  4  3  25
87  2  27  4  3  24
88  2  41  11  10  39
89  2  42  12  13  14
90  2  31  6  7  8
91  2  32  7  6  5
92  2  27  4  3  2
93  2  49  15  14  13
94  2  29  5  6  7
95  2  55  18  17  16
96  2  43  12  11  41
97  2  50  16  15  14
98  2  37  9  8  7
99  2  38  10  9  37
100  2  34  8  9  10
101  2  25  3  2  23
102  2  35  8  7  6
103  2  31  6  5  29
104  2  42  12  11  10
105  2  53  17  16  50
106  2  54  18  17  53
107  2  51  16  15  49
108  2  39  10  9  37
109  2  55  18  17  53
110  2  34  8  7  32
111  2  29  5  4  27
112  2  50  16  15  49
113  2  51  16  15  48
114  2  24  3  2  23
115  2  25  3  2  22
116  2  24  3  2  1
117  2  33  7  8  9
118  2  49  15  14  47
119  2  43  12  13  14
120  2  20  1  2  3
121  2  28  5  4  26
122  2  53  17  16  15
123  2  26  4  5  6
124  2  29  5  4  3
125  2  44  13  12  42
126  2  46  14  13  44
127  2  50  16  17  18
128  2  36  9  8  34
129  2  23  2  1  20
130  2  22  2  1  21
131  2  40  11  10  9
132  2  25  3  2  1
133  2  34  8  7  33
134  2  35  8  7  32
135  2  29  5  4  26
136  2  28  5  4  27
137  2  45  13  12  43
138  2  47  14  15  16
139  2  44  13  12  11
140  2  52  17  16  50
141  2  31  6  5  4
142  2  26  4  3  24
143  2  36  9  8  35
144  2  46  14  13  12
145  2  46  14  15  16
146  2  38  10  11  12
147  2  41  11  10  9
148  2  37  9  8  34
149  2  23  2  1  19
150  2  41  11  12  13
151  2  56  18  17  16
152  2  30  6  5  29
153  2  31  6  5  28

Impropers

1  1  1  2  19  20
2  1  1  2  19  21
3  1  2  1  3  22
4  1  2  1  3  23
5  1  3  2  4  24
6  1  3  25  2  4
7  1  4  26  3  5
8  1  4  27  5  3
9  1  5  4  28  6
10  1  5  4  29  6
11  1  6  5  30  7
12  1  6  7  5  31
13  1  7  8  6  32
14  1  7  33  6  8
15  1  8  9  34  7
16  1  8  9  35  7
17  1  9  10  36  8
18  1  9  10  37  8
19  1  10  9  11  38
20  1  10  9  11  39
21  1  11  10  12  40
22  1  11  41  10  12
23  1  12  42  11  13
24  1  12  43  13  11
25  1  13  12  44  14
26  1  13  12  45  14
27  1  14  13  46  15
28  1  14  15  13  47
29  1  15  16  14  48
30  1  15  49  14  16
31  1  16  17  50  15
32  1  16  17  51  15
33  1  17  18  52  16
34  1  17  18  53  16
35  1  18  17  54  55
36  1  18  17  54  56
