#C18: Octadecanoate

55 atoms
4 atom types

54 bonds
4 bond types

105 angles
7 angle types

150 dihedrals
5 dihedral types

35 impropers
2 improper types

-0.892839459670758  0.888070112547118  xlo xhi
-1.41351983225129  1.46180472476138  ylo yhi
-1.02079430031295  22.2695199367679  zlo zhi

Masses

1  12.011
2  12.011
3  15.999
4  1.008

Pair Coeffs

1  0.066  3.5
2  0.07  3.55
3  0.21  2.96
4  0.03  2.5

Bond Coeffs

1  268.0  1.529
2  317.0  1.522
3  656.0  1.25
4  340.0  1.09

Angle Coeffs

1  58.35  112.7
2  63.0  111.1
3  70.0  117.0
4  37.5  110.7
5  35.0  109.5
6  33.0  107.8
7  80.0  126.0

Dihedral Coeffs

1  1.3  -0.2  0.2  0.0
2  -2.06  -0.313  0.315  0.0
3  0.0  0.0  0.0  0.0
4  0.0  0.0  0.3  0.0
5  0.0  0.0  -0.1  0.0

Improper Coeffs

1  10.5  -1.0  2.0
2  0.0  -1.0  2.0

Atoms # full

1  1  1  -0.2091  -5.79155978492965e-18   -1.36022104514751e-14    21.4014232026985 
2  1  1  -0.1575  -0.000403973246182346    0.811547071260382    20.1173857468841 
3  1  1  -0.1569   0.000923143842305993   -0.0975716545260036    18.8933372050424 
4  1  1  -0.1577  -0.00128295594967141    0.718247697507408    17.6025366170461 
5  1  1  -0.1576  -0.00173965769268096   -0.198137669948128    16.3821768296322 
6  1  1  -0.1576  -0.00214380451314217    0.615771382785948    15.0913513001965 
7  1  1  -0.1578  -0.00440894765189007   -0.303473116294184    13.8750999682189 
8  1  1  -0.1578  -0.00300255325714055    0.509360796889816    12.5859603259253 
9  1  1  -0.1578  -0.00706718418562212   -0.410937155440222    11.3714097231868 
10  1  1  -0.1581  -0.00387079081406158    0.401898579086696    10.0822706688775 
11  1  1  -0.1578  -0.00613543312760525   -0.518389088554888    8.86772600004801 
12  1  1  -0.1583  -0.00472903873285572    0.294444824629113    7.57858635775445 
13  1  1  -0.1581  -0.00518485978609736   -0.623610960299044    6.36071978206271 
14  1  1  -0.1577  -0.00197520828414696    0.19472780853154    5.07505879297341 
15  1  1  -0.1613  -0.000600342656396024   -0.710967214028692    3.84725917444679 
16  1  1  -0.136   0.000803288477506162    0.121398686108202    2.56691532535431 
17  1  1  -0.2333   0.000411371903081671   -0.764255176694936    1.32812308219839 
18  1  2   0.4283   0    0    0 
19  1  3  -0.6312   3.50936005785904e-05    1.25956024314538    0.0709055735185259 
20  1  3  -0.6312   0.0011350128664935   -0.746625401318744   -1.02079430031295 
21  1  4   0.0697   0.000337188033768387    0.665995697810594    22.2695199367679 
22  1  4   0.0697   0.888070112547118   -0.637540400518281    21.4595657422677 
23  1  4   0.0697  -0.888031243769274   -0.637411824018215    21.4602057884819 
24  1  4   0.0773   0.881990648484913    1.46180472476138    20.099847497159 
25  1  4   0.0773  -0.884138352326685    1.46001612297697    20.0992726964234 
26  1  4   0.0782  -0.881061121867718   -0.749705613008861    18.9156043856774 
27  1  4   0.0782   0.885576507909969   -0.746163257416319    18.9149214725523 
28  1  4   0.0782   0.881675527058584    1.36820858219842    17.574163738175 
29  1  4   0.0782  -0.885604442844741    1.36657599191788    17.5760538777146 
30  1  4   0.0781  -0.884507357471285   -0.848103385884781    16.4081806204049 
31  1  4   0.0781   0.880923625079665   -0.84761557030549    16.4067505207049 
32  1  4   0.0784   0.882176911334377    1.26359328487146    15.0628090840731 
33  1  4   0.0784  -0.885076697326858    1.26556520431961    15.0646113902438 
34  1  4   0.078  -0.888838979930173   -0.95185303955454    13.9032895339681 
35  1  4   0.078   0.877245948361455   -0.955537118515252    13.9027714380595 
36  1  4   0.0783   0.882699970815776    1.15539031670789    12.5574678273599 
37  1  4   0.0783  -0.884647317959404    1.16100043646527    12.5592036313038 
38  1  4   0.0775  -0.892839459670758   -1.05716962257444    11.399773975398 
39  1  4   0.0775   0.873269159130983   -1.06450042624052    11.3993170160823 
40  1  4   0.0778   0.881380083573881    1.04895721351944    10.0556117285118 
41  1  4   0.0778  -0.884966173886887    1.05436045012384    10.054850487068 
42  1  4   0.0763  -0.890906597345891   -1.16616244379624    8.89748202812935 
43  1  4   0.0763   0.875898351246489   -1.16986269649062    8.89695348344833 
44  1  4   0.077   0.878838999028393    0.943817918344347    7.55339074890204 
45  1  4   0.077  -0.887532563346456    0.94475442183564    7.55217239154547 
46  1  4   0.0736  -0.890355775644397   -1.27063570064925    6.38740011926701 
47  1  4   0.0736   0.877298254493812   -1.27422017267191    6.38931045862682 
48  1  4   0.0756   0.881620296347597    0.844582645162595    5.05608258677191 
49  1  4   0.0756  -0.884231394328045    0.846258532184872    5.0529654020376 
50  1  4   0.0651  -0.884347124322946   -1.36009694492775    3.86787670235233 
51  1  4   0.0651   0.883153194667144   -1.36001791818048    3.8697365476964 
52  1  4   0.0795   0.883294089562378    0.772871865279653    2.55724321489047 
53  1  4   0.0795  -0.880338530706703    0.774673380132789    2.55657070685847 
54  1  4   0.0589  -0.884243918789552   -1.41269929409958    1.34207629877523 
55  1  4   0.0589   0.884728280451161   -1.41351983225129    1.34100115663716 

Bonds

1  1  2  1
2  1  3  2
3  1  4  3
4  1  5  4
5  1  6  5
6  1  7  6
7  1  8  7
8  1  9  8
9  1  10  9
10  1  11  10
11  1  12  11
12  1  13  12
13  1  14  13
14  1  15  14
15  1  16  15
16  1  17  16
17  2  18  17
18  3  19  18
19  3  20  18
20  4  21  1
21  4  22  1
22  4  23  1
23  4  24  2
24  4  25  2
25  4  26  3
26  4  27  3
27  4  28  4
28  4  29  4
29  4  30  5
30  4  31  5
31  4  32  6
32  4  33  6
33  4  34  7
34  4  35  7
35  4  36  8
36  4  37  8
37  4  38  9
38  4  39  9
39  4  40  10
40  4  41  10
41  4  42  11
42  4  43  11
43  4  44  12
44  4  45  12
45  4  46  13
46  4  47  13
47  4  48  14
48  4  49  14
49  4  50  15
50  4  51  15
51  4  52  16
52  4  53  16
53  4  54  17
54  4  55  17

Angles

1  1  1  2  3
2  1  2  3  4
3  1  3  4  5
4  1  4  5  6
5  1  5  6  7
6  1  6  7  8
7  1  7  8  9
8  1  8  9  10
9  1  9  10  11
10  1  10  11  12
11  1  11  12  13
12  1  12  13  14
13  1  13  14  15
14  1  14  15  16
15  1  15  16  17
16  2  16  17  18
17  3  17  18  19
18  3  17  18  20
19  4  2  1  21
20  4  2  1  22
21  4  2  1  23
22  4  1  2  24
23  4  1  2  25
24  4  2  3  26
25  4  2  3  27
26  4  3  4  28
27  4  3  4  29
28  4  4  5  30
29  4  4  5  31
30  4  5  6  32
31  4  5  6  33
32  4  6  7  34
33  4  6  7  35
34  4  7  8  36
35  4  7  8  37
36  4  8  9  38
37  4  8  9  39
38  4  9  10  40
39  4  9  10  41
40  4  10  11  42
41  4  10  11  43
42  4  11  12  44
43  4  11  12  45
44  4  12  13  46
45  4  12  13  47
46  4  13  14  48
47  4  13  14  49
48  4  14  15  50
49  4  14  15  51
50  4  15  16  52
51  4  15  16  53
52  4  16  17  54
53  4  16  17  55
54  5  18  17  55
55  4  16  15  50
56  4  12  11  42
57  6  50  15  51
58  6  44  12  45
59  4  10  9  39
60  5  18  17  54
61  6  32  6  33
62  4  7  6  32
63  4  6  5  30
64  4  3  2  25
65  4  5  4  28
66  4  9  8  37
67  6  40  10  41
68  4  9  8  36
69  4  11  10  41
70  4  17  16  53
71  6  52  16  53
72  4  15  14  49
73  4  11  10  40
74  4  6  5  31
75  4  14  13  47
76  6  36  8  37
77  4  17  16  52
78  4  8  7  35
79  6  21  1  23
80  6  54  17  55
81  6  24  2  25
82  4  13  12  45
83  7  19  18  20
84  4  4  3  27
85  4  14  13  46
86  4  4  3  26
87  4  8  7  34
88  6  34  7  35
89  4  5  4  29
90  6  28  4  29
91  6  26  3  27
92  4  10  9  38
93  6  42  11  43
94  6  22  1  23
95  4  16  15  51
96  6  46  13  47
97  6  48  14  49
98  4  15  14  48
99  4  13  12  44
100  4  12  11  43
101  6  21  1  22
102  4  3  2  24
103  4  7  6  33
104  6  30  5  31
105  6  38  9  39

Dihedrals

1  1  4  3  2  1
2  1  5  4  3  2
3  1  6  5  4  3
4  1  7  6  5  4
5  1  8  7  6  5
6  1  9  8  7  6
7  1  10  9  8  7
8  1  11  10  9  8
9  1  12  11  10  9
10  1  13  12  11  10
11  1  14  13  12  11
12  1  15  14  13  12
13  1  16  15  14  13
14  1  17  16  15  14
15  2  18  17  16  15
16  3  19  18  17  16
17  4  21  1  2  3
18  4  27  3  4  5
19  4  45  12  11  10
20  4  40  10  9  39
21  3  54  17  18  20
22  4  28  4  3  2
23  4  42  11  12  13
24  4  35  7  8  9
25  4  54  17  16  53
26  4  51  15  14  48
27  4  50  15  14  49
28  4  54  17  16  15
29  4  41  10  11  12
30  3  55  17  18  20
31  4  29  4  3  26
32  4  28  4  3  27
33  4  38  9  8  7
34  4  52  16  15  50
35  4  23  1  2  3
36  4  31  5  6  7
37  4  38  9  10  11
38  4  48  14  13  12
39  4  41  10  9  8
40  5  53  16  17  18
41  4  26  3  2  1
42  4  35  7  6  5
43  4  32  6  7  8
44  4  55  17  16  52
45  4  46  13  12  44
46  4  32  6  5  30
47  4  40  10  9  38
48  4  31  5  4  29
49  4  40  10  9  8
50  4  33  6  5  31
51  4  30  5  4  29
52  4  31  5  4  28
53  4  33  6  7  8
54  4  51  15  14  49
55  4  49  14  15  16
56  4  44  12  11  43
57  4  36  8  9  10
58  4  30  5  4  3
59  4  26  3  2  25
60  4  27  3  2  24
61  4  37  8  7  6
62  4  34  7  8  9
63  4  37  8  7  35
64  3  20  18  17  16
65  4  24  2  1  22
66  4  51  15  16  17
67  4  43  11  10  41
68  4  25  2  1  21
69  4  42  11  10  40
70  4  47  13  14  15
71  4  29  4  3  2
72  4  55  17  16  53
73  4  43  11  10  9
74  4  26  3  4  5
75  4  45  12  11  43
76  4  39  9  8  7
77  4  53  16  15  51
78  4  36  8  7  35
79  4  37  8  7  34
80  4  52  16  15  14
81  4  47  13  12  45
82  4  55  17  16  15
83  4  50  15  14  48
84  4  44  12  11  42
85  4  43  11  12  13
86  4  49  14  13  12
87  4  48  14  13  46
88  4  51  15  14  13
89  4  54  17  16  52
90  4  33  6  5  30
91  4  27  3  2  1
92  4  29  4  5  6
93  4  24  2  3  4
94  4  31  5  4  3
95  4  46  13  12  45
96  4  47  13  12  44
97  4  28  4  5  6
98  4  33  6  5  4
99  4  30  5  6  7
100  4  43  11  10  40
101  4  42  11  10  41
102  4  24  2  1  21
103  4  49  14  13  46
104  4  48  14  13  47
105  4  34  7  6  5
106  4  34  7  6  32
107  4  32  6  5  4
108  3  54  17  18  19
109  4  50  15  16  17
110  4  46  13  14  15
111  4  25  2  1  23
112  4  45  12  11  42
113  4  26  3  2  24
114  4  22  1  2  3
115  4  39  9  10  11
116  4  36  8  7  6
117  4  53  16  15  14
118  4  40  10  11  12
119  4  24  2  1  23
120  4  25  2  1  22
121  4  38  9  8  37
122  4  45  12  13  14
123  4  47  13  12  11
124  5  52  16  17  18
125  4  44  12  13  14
126  4  35  7  6  32
127  4  34  7  6  33
128  4  46  13  12  11
129  4  30  5  4  28
130  4  41  10  9  39
131  4  39  9  8  36
132  4  29  4  3  27
133  4  36  8  7  34
134  4  41  10  9  38
135  4  39  9  8  37
136  4  48  14  15  16
137  3  55  17  18  19
138  4  42  11  10  9
139  4  25  2  3  4
140  4  52  16  15  51
141  4  53  16  15  50
142  4  32  6  5  31
143  4  49  14  13  47
144  4  28  4  3  26
145  4  50  15  14  13
146  4  27  3  2  25
147  4  38  9  8  36
148  4  37  8  9  10
149  4  35  7  6  33
150  4  44  12  11  10

Impropers

1  1  18  17  19  20
2  2  1  2  21  22
3  2  1  2  21  23
4  2  2  1  3  24
5  2  2  25  3  1
6  2  3  26  4  2
7  2  3  2  27  4
8  2  4  3  28  5
9  2  4  5  3  29
10  2  5  4  30  6
11  2  5  4  6  31
12  2  6  5  7  32
13  2  6  33  5  7
14  2  7  34  6  8
15  2  7  35  6  8
16  2  8  9  36  7
17  2  8  9  37  7
18  2  9  10  38  8
19  2  9  10  39  8
20  2  10  9  11  40
21  2  10  41  11  9
22  2  11  42  12  10
23  2  11  10  43  12
24  2  12  11  44  13
25  2  12  13  11  45
26  2  13  12  46  14
27  2  13  12  14  47
28  2  14  13  15  48
29  2  14  49  13  15
30  2  15  50  14  16
31  2  15  51  14  16
32  2  16  17  52  15
33  2  16  17  53  15
34  2  17  18  54  16
35  2  17  18  55  16
