LAMMPS data file Created by LigParGen - (Written by Leela S. Dodda)

      56 atoms
      55 bonds
     108 angles
     153 dihedrals
      36 impropers
 
      56 atom types
      55 bond types
     108 angle types
     153 dihedral types
      36 improper types
 
  -17.422930    32.577070 xlo xhi
    0.101880    50.101880 ylo yhi
   -1.027440    48.972560 zlo zhi

Masses

       1     12.011  
       2     12.011  
       3     12.011  
       4     12.011  
       5     12.011  
       6     12.011  
       7     12.011  
       8     12.011  
       9     12.011  
      10     12.011  
      11     12.011  
      12     12.011  
      13     12.011  
      14     12.011  
      15     12.011  
      16     12.011  
      17     12.011  
      18     12.011  
      19      1.008  
      20      1.008  
      21      1.008  
      22      1.008  
      23      1.008  
      24      1.008  
      25      1.008  
      26      1.008  
      27      1.008  
      28      1.008  
      29      1.008  
      30      1.008  
      31      1.008  
      32      1.008  
      33      1.008  
      34      1.008  
      35      1.008  
      36      1.008  
      37      1.008  
      38      1.008  
      39      1.008  
      40      1.008  
      41      1.008  
      42      1.008  
      43      1.008  
      44      1.008  
      45      1.008  
      46      1.008  
      47      1.008  
      48      1.008  
      49      1.008  
      50      1.008  
      51      1.008  
      52      1.008  
      53      1.008  
      54      1.008  
      55      1.008  
      56      1.008  

Pair Coeffs 

       1      0.066  3.5000000 
       2      0.066  3.5000000 
       3      0.066  3.5000000 
       4      0.066  3.5000000 
       5      0.066  3.5000000 
       6      0.066  3.5000000 
       7      0.066  3.5000000 
       8      0.066  3.5000000 
       9      0.066  3.5000000 
      10      0.066  3.5000000 
      11      0.066  3.5000000 
      12      0.066  3.5000000 
      13      0.066  3.5000000 
      14      0.066  3.5000000 
      15      0.066  3.5000000 
      16      0.066  3.5000000 
      17      0.066  3.5000000 
      18      0.066  3.5000000 
      19      0.030  2.5000000 
      20      0.030  2.5000000 
      21      0.030  2.5000000 
      22      0.030  2.5000000 
      23      0.030  2.5000000 
      24      0.030  2.5000000 
      25      0.030  2.5000000 
      26      0.030  2.5000000 
      27      0.030  2.5000000 
      28      0.030  2.5000000 
      29      0.030  2.5000000 
      30      0.030  2.5000000 
      31      0.030  2.5000000 
      32      0.030  2.5000000 
      33      0.030  2.5000000 
      34      0.030  2.5000000 
      35      0.030  2.5000000 
      36      0.030  2.5000000 
      37      0.030  2.5000000 
      38      0.030  2.5000000 
      39      0.030  2.5000000 
      40      0.030  2.5000000 
      41      0.030  2.5000000 
      42      0.030  2.5000000 
      43      0.030  2.5000000 
      44      0.030  2.5000000 
      45      0.030  2.5000000 
      46      0.030  2.5000000 
      47      0.030  2.5000000 
      48      0.030  2.5000000 
      49      0.030  2.5000000 
      50      0.030  2.5000000 
      51      0.030  2.5000000 
      52      0.030  2.5000000 
      53      0.030  2.5000000 
      54      0.030  2.5000000 
      55      0.030  2.5000000 
      56      0.030  2.5000000 

Bond Coeffs 

       1   268.0000     1.5290 
       2   268.0000     1.5290 
       3   268.0000     1.5290 
       4   268.0000     1.5290 
       5   268.0000     1.5290 
       6   268.0000     1.5290 
       7   268.0000     1.5290 
       8   268.0000     1.5290 
       9   268.0000     1.5290 
      10   268.0000     1.5290 
      11   268.0000     1.5290 
      12   268.0000     1.5290 
      13   268.0000     1.5290 
      14   268.0000     1.5290 
      15   268.0000     1.5290 
      16   268.0000     1.5290 
      17   268.0000     1.5290 
      18   340.0000     1.0900 
      19   340.0000     1.0900 
      20   340.0000     1.0900 
      21   340.0000     1.0900 
      22   340.0000     1.0900 
      23   340.0000     1.0900 
      24   340.0000     1.0900 
      25   340.0000     1.0900 
      26   340.0000     1.0900 
      27   340.0000     1.0900 
      28   340.0000     1.0900 
      29   340.0000     1.0900 
      30   340.0000     1.0900 
      31   340.0000     1.0900 
      32   340.0000     1.0900 
      33   340.0000     1.0900 
      34   340.0000     1.0900 
      35   340.0000     1.0900 
      36   340.0000     1.0900 
      37   340.0000     1.0900 
      38   340.0000     1.0900 
      39   340.0000     1.0900 
      40   340.0000     1.0900 
      41   340.0000     1.0900 
      42   340.0000     1.0900 
      43   340.0000     1.0900 
      44   340.0000     1.0900 
      45   340.0000     1.0900 
      46   340.0000     1.0900 
      47   340.0000     1.0900 
      48   340.0000     1.0900 
      49   340.0000     1.0900 
      50   340.0000     1.0900 
      51   340.0000     1.0900 
      52   340.0000     1.0900 
      53   340.0000     1.0900 
      54   340.0000     1.0900 
      55   340.0000     1.0900 

Angle Coeffs 

       1     58.350    112.700
       2     58.350    112.700
       3     58.350    112.700
       4     58.350    112.700
       5     58.350    112.700
       6     58.350    112.700
       7     58.350    112.700
       8     58.350    112.700
       9     58.350    112.700
      10     58.350    112.700
      11     58.350    112.700
      12     58.350    112.700
      13     58.350    112.700
      14     58.350    112.700
      15     58.350    112.700
      16     58.350    112.700
      17     37.500    110.700
      18     37.500    110.700
      19     37.500    110.700
      20     37.500    110.700
      21     37.500    110.700
      22     37.500    110.700
      23     37.500    110.700
      24     37.500    110.700
      25     37.500    110.700
      26     37.500    110.700
      27     37.500    110.700
      28     37.500    110.700
      29     37.500    110.700
      30     37.500    110.700
      31     37.500    110.700
      32     37.500    110.700
      33     37.500    110.700
      34     37.500    110.700
      35     37.500    110.700
      36     37.500    110.700
      37     37.500    110.700
      38     37.500    110.700
      39     37.500    110.700
      40     37.500    110.700
      41     37.500    110.700
      42     37.500    110.700
      43     37.500    110.700
      44     37.500    110.700
      45     37.500    110.700
      46     37.500    110.700
      47     37.500    110.700
      48     37.500    110.700
      49     37.500    110.700
      50     37.500    110.700
      51     37.500    110.700
      52     37.500    110.700
      53     37.500    110.700
      54     37.500    110.700
      55     37.500    110.700
      56     37.500    110.700
      57     37.500    110.700
      58     33.000    107.800
      59     33.000    107.800
      60     37.500    110.700
      61     33.000    107.800
      62     33.000    107.800
      63     37.500    110.700
      64     33.000    107.800
      65     37.500    110.700
      66     37.500    110.700
      67     33.000    107.800
      68     37.500    110.700
      69     37.500    110.700
      70     37.500    110.700
      71     37.500    110.700
      72     37.500    110.700
      73     37.500    110.700
      74     33.000    107.800
      75     33.000    107.800
      76     37.500    110.700
      77     37.500    110.700
      78     33.000    107.800
      79     33.000    107.800
      80     33.000    107.800
      81     33.000    107.800
      82     37.500    110.700
      83     33.000    107.800
      84     37.500    110.700
      85     33.000    107.800
      86     33.000    107.800
      87     37.500    110.700
      88     33.000    107.800
      89     33.000    107.800
      90     33.000    107.800
      91     37.500    110.700
      92     33.000    107.800
      93     37.500    110.700
      94     37.500    110.700
      95     33.000    107.800
      96     37.500    110.700
      97     37.500    110.700
      98     37.500    110.700
      99     37.500    110.700
     100     37.500    110.700
     101     37.500    110.700
     102     37.500    110.700
     103     33.000    107.800
     104     33.000    107.800
     105     37.500    110.700
     106     37.500    110.700
     107     37.500    110.700
     108     37.500    110.700

Dihedral Coeffs  

       1      1.300     -0.200      0.200      0.000 
       2      1.300     -0.200      0.200      0.000 
       3      1.300     -0.200      0.200      0.000 
       4      1.300     -0.200      0.200      0.000 
       5      1.300     -0.200      0.200      0.000 
       6      1.300     -0.200      0.200      0.000 
       7      1.300     -0.200      0.200      0.000 
       8      1.300     -0.200      0.200      0.000 
       9      1.300     -0.200      0.200      0.000 
      10      1.300     -0.200      0.200      0.000 
      11      1.300     -0.200      0.200      0.000 
      12      1.300     -0.200      0.200      0.000 
      13      1.300     -0.200      0.200      0.000 
      14      1.300     -0.200      0.200      0.000 
      15      1.300     -0.200      0.200      0.000 
      16      0.000      0.000      0.300      0.000 
      17      0.000      0.000      0.300      0.000 
      18      0.000      0.000      0.300      0.000 
      19      0.000      0.000      0.300      0.000 
      20      0.000      0.000      0.300      0.000 
      21      0.000      0.000      0.300      0.000 
      22      0.000      0.000      0.300      0.000 
      23      0.000      0.000      0.300      0.000 
      24      0.000      0.000      0.300      0.000 
      25      0.000      0.000      0.300      0.000 
      26      0.000      0.000      0.300      0.000 
      27      0.000      0.000      0.300      0.000 
      28      0.000      0.000      0.300      0.000 
      29      0.000      0.000      0.300      0.000 
      30      0.000      0.000      0.300      0.000 
      31      0.000      0.000      0.300      0.000 
      32      0.000      0.000      0.300      0.000 
      33      0.000      0.000      0.300      0.000 
      34      0.000      0.000      0.300      0.000 
      35      0.000      0.000      0.300      0.000 
      36      0.000      0.000      0.300      0.000 
      37      0.000      0.000      0.300      0.000 
      38      0.000      0.000      0.300      0.000 
      39      0.000      0.000      0.300      0.000 
      40      0.000      0.000      0.300      0.000 
      41      0.000      0.000      0.300      0.000 
      42      0.000      0.000      0.300      0.000 
      43      0.000      0.000      0.300      0.000 
      44      0.000      0.000      0.300      0.000 
      45      0.000      0.000      0.300      0.000 
      46      0.000      0.000      0.300      0.000 
      47      0.000      0.000      0.300      0.000 
      48      0.000      0.000      0.300      0.000 
      49      0.000      0.000      0.300      0.000 
      50      0.000      0.000      0.300      0.000 
      51      0.000      0.000      0.300      0.000 
      52      0.000      0.000      0.300      0.000 
      53      0.000      0.000      0.300      0.000 
      54      0.000      0.000      0.300      0.000 
      55      0.000      0.000      0.300      0.000 
      56      0.000      0.000      0.300      0.000 
      57      0.000      0.000      0.300      0.000 
      58      0.000      0.000      0.300      0.000 
      59      0.000      0.000      0.300      0.000 
      60      0.000      0.000      0.300      0.000 
      61      0.000      0.000      0.300      0.000 
      62      0.000      0.000      0.300      0.000 
      63      0.000      0.000      0.300      0.000 
      64      0.000      0.000      0.300      0.000 
      65      0.000      0.000      0.300      0.000 
      66      0.000      0.000      0.300      0.000 
      67      0.000      0.000      0.300      0.000 
      68      0.000      0.000      0.300      0.000 
      69      0.000      0.000      0.300      0.000 
      70      0.000      0.000      0.300      0.000 
      71      0.000      0.000      0.300      0.000 
      72      0.000      0.000      0.300      0.000 
      73      0.000      0.000      0.300      0.000 
      74      0.000      0.000      0.300      0.000 
      75      0.000      0.000      0.300      0.000 
      76      0.000      0.000      0.300      0.000 
      77      0.000      0.000      0.300      0.000 
      78      0.000      0.000      0.300      0.000 
      79      0.000      0.000      0.300      0.000 
      80      0.000      0.000      0.300      0.000 
      81      0.000      0.000      0.300      0.000 
      82      0.000      0.000      0.300      0.000 
      83      0.000      0.000      0.300      0.000 
      84      0.000      0.000      0.300      0.000 
      85      0.000      0.000      0.300      0.000 
      86      0.000      0.000      0.300      0.000 
      87      0.000      0.000      0.300      0.000 
      88      0.000      0.000      0.300      0.000 
      89      0.000      0.000      0.300      0.000 
      90      0.000      0.000      0.300      0.000 
      91      0.000      0.000      0.300      0.000 
      92      0.000      0.000      0.300      0.000 
      93      0.000      0.000      0.300      0.000 
      94      0.000      0.000      0.300      0.000 
      95      0.000      0.000      0.300      0.000 
      96      0.000      0.000      0.300      0.000 
      97      0.000      0.000      0.300      0.000 
      98      0.000      0.000      0.300      0.000 
      99      0.000      0.000      0.300      0.000 
     100      0.000      0.000      0.300      0.000 
     101      0.000      0.000      0.300      0.000 
     102      0.000      0.000      0.300      0.000 
     103      0.000      0.000      0.300      0.000 
     104      0.000      0.000      0.300      0.000 
     105      0.000      0.000      0.300      0.000 
     106      0.000      0.000      0.300      0.000 
     107      0.000      0.000      0.300      0.000 
     108      0.000      0.000      0.300      0.000 
     109      0.000      0.000      0.300      0.000 
     110      0.000      0.000      0.300      0.000 
     111      0.000      0.000      0.300      0.000 
     112      0.000      0.000      0.300      0.000 
     113      0.000      0.000      0.300      0.000 
     114      0.000      0.000      0.300      0.000 
     115      0.000      0.000      0.300      0.000 
     116      0.000      0.000      0.300      0.000 
     117      0.000      0.000      0.300      0.000 
     118      0.000      0.000      0.300      0.000 
     119      0.000      0.000      0.300      0.000 
     120      0.000      0.000      0.300      0.000 
     121      0.000      0.000      0.300      0.000 
     122      0.000      0.000      0.300      0.000 
     123      0.000      0.000      0.300      0.000 
     124      0.000      0.000      0.300      0.000 
     125      0.000      0.000      0.300      0.000 
     126      0.000      0.000      0.300      0.000 
     127      0.000      0.000      0.300      0.000 
     128      0.000      0.000      0.300      0.000 
     129      0.000      0.000      0.300      0.000 
     130      0.000      0.000      0.300      0.000 
     131      0.000      0.000      0.300      0.000 
     132      0.000      0.000      0.300      0.000 
     133      0.000      0.000      0.300      0.000 
     134      0.000      0.000      0.300      0.000 
     135      0.000      0.000      0.300      0.000 
     136      0.000      0.000      0.300      0.000 
     137      0.000      0.000      0.300      0.000 
     138      0.000      0.000      0.300      0.000 
     139      0.000      0.000      0.300      0.000 
     140      0.000      0.000      0.300      0.000 
     141      0.000      0.000      0.300      0.000 
     142      0.000      0.000      0.300      0.000 
     143      0.000      0.000      0.300      0.000 
     144      0.000      0.000      0.300      0.000 
     145      0.000      0.000      0.300      0.000 
     146      0.000      0.000      0.300      0.000 
     147      0.000      0.000      0.300      0.000 
     148      0.000      0.000      0.300      0.000 
     149      0.000      0.000      0.300      0.000 
     150      0.000      0.000      0.300      0.000 
     151      0.000      0.000      0.300      0.000 
     152      0.000      0.000      0.300      0.000 
     153      0.000      0.000      0.300      0.000 

Improper Coeffs 

       1      0.000      -1       2 
       2      0.000      -1       2 
       3      0.000      -1       2 
       4      0.000      -1       2 
       5      0.000      -1       2 
       6      0.000      -1       2 
       7      0.000      -1       2 
       8      0.000      -1       2 
       9      0.000      -1       2 
      10      0.000      -1       2 
      11      0.000      -1       2 
      12      0.000      -1       2 
      13      0.000      -1       2 
      14      0.000      -1       2 
      15      0.000      -1       2 
      16      0.000      -1       2 
      17      0.000      -1       2 
      18      0.000      -1       2 
      19      0.000      -1       2 
      20      0.000      -1       2 
      21      0.000      -1       2 
      22      0.000      -1       2 
      23      0.000      -1       2 
      24      0.000      -1       2 
      25      0.000      -1       2 
      26      0.000      -1       2 
      27      0.000      -1       2 
      28      0.000      -1       2 
      29      0.000      -1       2 
      30      0.000      -1       2 
      31      0.000      -1       2 
      32      0.000      -1       2 
      33      0.000      -1       2 
      34      0.000      -1       2 
      35      0.000      -1       2 
      36      0.000      -1       2 

Atoms 

     1      1      1 -0.23890000    1.000  1.00000  0.00000
     2      1      2 -0.17960000   -0.519  1.00000  0.00000
     3      1      3 -0.17880000   -1.069  1.00000  1.42362
     4      1      4 -0.17950000   -2.595  1.00180  1.42362
     5      1      5 -0.17960000   -3.136  1.00359  2.85073
     6      1      6 -0.17960000   -4.661  1.00359  2.85563
     7      1      7 -0.17970000   -5.196  1.00719  4.28426
     8      1      8 -0.17950000   -6.720  1.00539  4.29079
     9      1      9 -0.17960000   -7.252  1.00719  5.71896
    10      1     10 -0.17940000   -8.776  1.00359  5.72549
    11      1     11 -0.17970000   -9.308  1.00719  7.15261
    12      1     12 -0.17970000  -10.833  1.00179  7.16078
    13      1     13 -0.17960000  -11.369  1.00357  8.58877
    14      1     14 -0.17960000  -12.895  0.99997  8.59368
    15      1     15 -0.17950000  -13.434  1.00355 10.02122
    16      1     16 -0.17880000  -14.960  0.99812 10.02287
    17      1     17 -0.17950000  -15.509  0.99986 11.44761
    18      1     18 -0.23880000  -17.028  0.99267 11.44926
    19      1     19 0.08070000    1.379  0.99870 -1.02744
    20      1     20 0.08070000    1.390  0.11259  0.50876
    21      1     21 0.08070000    1.390  1.88861  0.50647
    22      1     22 0.08840000   -0.881  0.11662 -0.53959
    23      1     23 0.08840000   -0.881  1.88305 -0.53939
    24      1     24 0.08950000   -0.700  1.88252  1.96043
    25      1     25 0.08950000   -0.702  0.11657  1.96051
    26      1     26 0.08950000   -2.966  0.11879  0.88921
    27      1     27 0.08950000   -2.964  1.88554  0.88876
    28      1     28 0.08960000   -2.766  1.88772  3.38423
    29      1     29 0.08960000   -2.766  0.12081  3.38644
    30      1     30 0.08980000   -5.033  0.11863  2.32497
    31      1     31 0.08980000   -5.033  1.88588  2.32051
    32      1     32 0.08980000   -4.824  1.89271  4.81468
    33      1     33 0.08980000   -4.822  0.12571  4.81993
    34      1     34 0.08980000   -7.091  0.12083  3.75864
    35      1     35 0.08980000   -7.093  1.88717  3.75569
    36      1     36 0.08980000   -6.882  1.89236  6.25067
    37      1     37 0.08980000   -6.878  0.12603  6.25447
    38      1     38 0.08990000   -9.146  0.11767  5.19485
    39      1     39 0.08990000   -9.150  1.88463  5.18993
    40      1     40 0.08970000   -8.939  1.89263  7.68405
    41      1     41 0.08970000   -8.933  0.12646  7.68944
    42      1     42 0.08960000  -11.202  0.11603  6.62849
    43      1     43 0.08960000  -11.207  1.88284  6.62492
    44      1     44 0.08970000  -10.999  1.88904  9.12029
    45      1     45 0.08970000  -10.995  0.12224  9.12402
    46      1     46 0.08960000  -13.261  0.11388  8.06111
    47      1     47 0.08960000  -13.265  1.88054  8.05517
    48      1     48 0.08950000  -13.066  1.89064 10.55103
    49      1     49 0.08950000  -13.058  0.12379 10.55823
    50      1     50 0.08960000  -15.323  0.11165  9.48855
    51      1     51 0.08960000  -15.331  1.87834  9.48310
    52      1     52 0.08840000  -15.150  1.88622 11.98321
    53      1     53 0.08840000  -15.142  0.12017 11.98859
    54      1     54 0.08080000  -17.423  1.87661 10.93827
    55      1     55 0.08080000  -17.405  0.99530 12.47644
    56      1     56 0.08080000  -17.415  0.10188 10.94365

Bonds 

     1      1      2      1
     2      2      3      2
     3      3      4      3
     4      4      5      4
     5      5      6      5
     6      6      7      6
     7      7      8      7
     8      8      9      8
     9      9     10      9
    10     10     11     10
    11     11     12     11
    12     12     13     12
    13     13     14     13
    14     14     15     14
    15     15     16     15
    16     16     17     16
    17     17     18     17
    18     18     19      1
    19     19     20      1
    20     20     21      1
    21     21     22      2
    22     22     23      2
    23     23     24      3
    24     24     25      3
    25     25     26      4
    26     26     27      4
    27     27     28      5
    28     28     29      5
    29     29     30      6
    30     30     31      6
    31     31     32      7
    32     32     33      7
    33     33     34      8
    34     34     35      8
    35     35     36      9
    36     36     37      9
    37     37     38     10
    38     38     39     10
    39     39     40     11
    40     40     41     11
    41     41     42     12
    42     42     43     12
    43     43     44     13
    44     44     45     13
    45     45     46     14
    46     46     47     14
    47     47     48     15
    48     48     49     15
    49     49     50     16
    50     50     51     16
    51     51     52     17
    52     52     53     17
    53     53     54     18
    54     54     55     18
    55     55     56     18

Angles 

     1      1      1      2      3
     2      2      2      3      4
     3      3      3      4      5
     4      4      4      5      6
     5      5      5      6      7
     6      6      6      7      8
     7      7      7      8      9
     8      8      8      9     10
     9      9      9     10     11
    10     10     10     11     12
    11     11     11     12     13
    12     12     12     13     14
    13     13     13     14     15
    14     14     14     15     16
    15     15     15     16     17
    16     16     16     17     18
    17     17      2      1     19
    18     18      2      1     20
    19     19      2      1     21
    20     20      1      2     22
    21     21      1      2     23
    22     22      2      3     24
    23     23      2      3     25
    24     24      3      4     26
    25     25      3      4     27
    26     26      4      5     28
    27     27      4      5     29
    28     28      5      6     30
    29     29      5      6     31
    30     30      6      7     32
    31     31      6      7     33
    32     32      7      8     34
    33     33      7      8     35
    34     34      8      9     36
    35     35      8      9     37
    36     36      9     10     38
    37     37      9     10     39
    38     38     10     11     40
    39     39     10     11     41
    40     40     11     12     42
    41     41     11     12     43
    42     42     12     13     44
    43     43     12     13     45
    44     44     13     14     46
    45     45     13     14     47
    46     46     14     15     48
    47     47     14     15     49
    48     48     15     16     50
    49     49     15     16     51
    50     50     16     17     52
    51     51     16     17     53
    52     52     17     18     54
    53     53     17     18     55
    54     54     17     18     56
    55     55     15     14     47
    56     56     11     10     38
    57     57     12     11     40
    58     58     50     16     51
    59     59     19      1     21
    60     60      4      3     24
    61     61     46     14     47
    62     62     34      8     35
    63     63     17     16     50
    64     64     20      1     21
    65     65      5      4     27
    66     66      7      6     31
    67     67     24      3     25
    68     68     14     13     45
    69     69      5      4     26
    70     70      8      7     33
    71     71      9      8     34
    72     72      8      7     32
    73     73     15     14     46
    74     74     48     15     49
    75     75     38     10     39
    76     76      6      5     28
    77     77     13     12     42
    78     78     42     12     43
    79     79     32      7     33
    80     80     44     13     45
    81     81     52     17     53
    82     82      4      3     25
    83     83     26      4     27
    84     84     18     17     52
    85     85     54     18     55
    86     86     22      2     23
    87     87     13     12     43
    88     88     28      5     29
    89     89     36      9     37
    90     90     54     18     56
    91     91     18     17     53
    92     92     55     18     56
    93     93      7      6     30
    94     94     16     15     48
    95     95     30      6     31
    96     96     11     10     39
    97     97      3      2     22
    98     98      3      2     23
    99     99      9      8     35
   100    100     16     15     49
   101    101     10      9     37
   102    102     10      9     36
   103    103     40     11     41
   104    104     19      1     20
   105    105      6      5     29
   106    106     17     16     51
   107    107     12     11     41
   108    108     14     13     44

Dihedrals

     1      1      4      3      2      1 
     2      2      5      4      3      2 
     3      3      6      5      4      3 
     4      4      7      6      5      4 
     5      5      8      7      6      5 
     6      6      9      8      7      6 
     7      7     10      9      8      7 
     8      8     11     10      9      8 
     9      9     12     11     10      9 
    10     10     13     12     11     10 
    11     11     14     13     12     11 
    12     12     15     14     13     12 
    13     13     16     15     14     13 
    14     14     17     16     15     14 
    15     15     18     17     16     15 
    16     16     19      1      2      3 
    17     17     54     18     17     16 
    18     18     34      8      7      6 
    19     19     50     16     15     48 
    20     20     38     10      9      8 
    21     21     47     14     13     44 
    22     22     25      3      4      5 
    23     23     47     14     13     45 
    24     24     48     15     14     47 
    25     25     49     15     14     46 
    26     26     51     16     17     18 
    27     27     35      8      9     10 
    28     28     23      2      1     21 
    29     29     48     15     16     17 
    30     30     55     18     17     52 
    31     31     51     16     15     14 
    32     32     45     13     14     15 
    33     33     39     10      9     36 
    34     34     39     10     11     12 
    35     35     33      7      6     30 
    36     36     32      7      6     31 
    37     37     32      7      8      9 
    38     38     33      7      6     31 
    39     39     28      5      4      3 
    40     40     46     14     13     45 
    41     41     23      2      3      4 
    42     42     56     18     17     53 
    43     43     24      3      2     22 
    44     44     27      4      3     25 
    45     45     38     10      9     36 
    46     46     30      6      5     28 
    47     47     35      8      7     33 
    48     48     43     12     11     40 
    49     49     42     12     11     41 
    50     50     37      9     10     11 
    51     51     45     13     12     11 
    52     52     22      2      1     20 
    53     53     36      9      8      7 
    54     54     54     18     17     52 
    55     55     22      2      3      4 
    56     56     26      4      3      2 
    57     57     28      5      6      7 
    58     58     52     17     16     51 
    59     59     33      7      6      5 
    60     60     53     17     16     51 
    61     61     30      6      7      8 
    62     62     40     11     12     13 
    63     63     44     13     12     43 
    64     64     43     12     11     10 
    65     65     39     10      9      8 
    66     66     36      9     10     11 
    67     67     40     11     10     39 
    68     68     41     11     10     38 
    69     69     37      9      8     35 
    70     70     49     15     16     17 
    71     71     47     14     13     12 
    72     72     44     13     14     15 
    73     73     40     11     10     38 
    74     74     45     13     12     42 
    75     75     52     17     16     15 
    76     76     21      1      2      3 
    77     77     27      4      5      6 
    78     78     32      7      6     30 
    79     79     30      6      5      4 
    80     80     48     15     14     46 
    81     81     24      3      4      5 
    82     82     48     15     14     13 
    83     83     56     18     17     52 
    84     84     42     12     11     40 
    85     85     22      2      1     19 
    86     86     26      4      3     25 
    87     87     27      4      3     24 
    88     88     41     11     10     39 
    89     89     42     12     13     14 
    90     90     31      6      7      8 
    91     91     32      7      6      5 
    92     92     27      4      3      2 
    93     93     49     15     14     13 
    94     94     29      5      6      7 
    95     95     55     18     17     16 
    96     96     43     12     11     41 
    97     97     50     16     15     14 
    98     98     37      9      8      7 
    99     99     38     10      9     37 
   100    100     34      8      9     10 
   101    101     25      3      2     23 
   102    102     35      8      7      6 
   103    103     31      6      5     29 
   104    104     42     12     11     10 
   105    105     53     17     16     50 
   106    106     54     18     17     53 
   107    107     51     16     15     49 
   108    108     39     10      9     37 
   109    109     55     18     17     53 
   110    110     34      8      7     32 
   111    111     29      5      4     27 
   112    112     50     16     15     49 
   113    113     51     16     15     48 
   114    114     24      3      2     23 
   115    115     25      3      2     22 
   116    116     24      3      2      1 
   117    117     33      7      8      9 
   118    118     49     15     14     47 
   119    119     43     12     13     14 
   120    120     20      1      2      3 
   121    121     28      5      4     26 
   122    122     53     17     16     15 
   123    123     26      4      5      6 
   124    124     29      5      4      3 
   125    125     44     13     12     42 
   126    126     46     14     13     44 
   127    127     50     16     17     18 
   128    128     36      9      8     34 
   129    129     23      2      1     20 
   130    130     22      2      1     21 
   131    131     40     11     10      9 
   132    132     25      3      2      1 
   133    133     34      8      7     33 
   134    134     35      8      7     32 
   135    135     29      5      4     26 
   136    136     28      5      4     27 
   137    137     45     13     12     43 
   138    138     47     14     15     16 
   139    139     44     13     12     11 
   140    140     52     17     16     50 
   141    141     31      6      5      4 
   142    142     26      4      3     24 
   143    143     36      9      8     35 
   144    144     46     14     13     12 
   145    145     46     14     15     16 
   146    146     38     10     11     12 
   147    147     41     11     10      9 
   148    148     37      9      8     34 
   149    149     23      2      1     19 
   150    150     41     11     12     13 
   151    151     56     18     17     16 
   152    152     30      6      5     29 
   153    153     31      6      5     28 

Impropers

     1      1      1      2     19     20 
     2      2      1      2     19     21 
     3      3      2      1      3     22 
     4      4      2      1      3     23 
     5      5      3      2      4     24 
     6      6      3     25      2      4 
     7      7      4     26      3      5 
     8      8      4     27      5      3 
     9      9      5      4     28      6 
    10     10      5      4     29      6 
    11     11      6      5     30      7 
    12     12      6      7      5     31 
    13     13      7      8      6     32 
    14     14      7     33      6      8 
    15     15      8      9     34      7 
    16     16      8      9     35      7 
    17     17      9     10     36      8 
    18     18      9     10     37      8 
    19     19     10      9     11     38 
    20     20     10      9     11     39 
    21     21     11     10     12     40 
    22     22     11     41     10     12 
    23     23     12     42     11     13 
    24     24     12     43     13     11 
    25     25     13     12     44     14 
    26     26     13     12     45     14 
    27     27     14     13     46     15 
    28     28     14     15     13     47 
    29     29     15     16     14     48 
    30     30     15     49     14     16 
    31     31     16     17     50     15 
    32     32     16     17     51     15 
    33     33     17     18     52     16 
    34     34     17     18     53     16 
    35     35     18     17     54     55 
    36     36     18     17     54     56 

