#C18_acid

56 atoms
6 atom types

55 bonds
6 bond types

106 angles
9 angle types

152 dihedrals
8 dihedral types

35 impropers
2 improper types

-0.891424477159156  0.899938673239342  xlo xhi
-1.46396140971202  1.72995719198304  ylo yhi
-1.11055858147651  22.2176143090611  zlo zhi

Masses

1  12.011
2  12.011
3  15.999
4  15.999
5  1.008
6  1.008

Pair Coeffs

1  0.066  3.5
2  0.07  3.55
3  0.21  2.96
4  0.17  3.12
5  0.03  2.5
6  0.0  0.0

Bond Coeffs

1  268.0  1.529
2  317.0  1.522
3  570.0  1.229
4  450.0  1.364
5  340.0  1.09
6  553.0  0.945

Angle Coeffs

1  58.35  112.7
2  63.0  111.1
3  80.0  120.4
4  70.0  108.0
5  37.5  110.7
6  35.0  113.0
7  35.0  109.5
8  33.0  107.8
9  80.0  121.0

Dihedral Coeffs

1  1.3  -0.2  0.2  0.0
2  -2.06  -0.313  0.315  0.0
3  0.0  0.0  0.0  0.0
4  0.0  0.0  0.3  0.0
5  1.5  5.5  0.0  0.0
6  0.0  0.0  -0.1  0.0
7  1.0  0.546  0.45  0.0
8  0.0  5.5  0.0  0.0

Improper Coeffs

1  10.5  -1.0  2.0
2  0.0  -1.0  2.0

Atoms # full

1  1  1  -0.2389   2.11086930316845e-17    7.20887610870101e-15    21.3501844286109 
2  1  1  -0.1796  -0.00323606976261774   -0.810378615065405    20.0654132318225 
3  1  1  -0.1787   0.00258284652744579    0.100303614492823    18.8407078225587 
4  1  1  -0.1796  -0.00247024060851858   -0.714333437499767    17.5491687484958 
5  1  1  -0.1795   0.00520787637062789    0.204761234620629    16.3309755648834 
6  1  1  -0.1796  -0.00162704681280509   -0.60657553605641    15.0385416145508 
7  1  1  -0.1797   0.00788331648733225    0.315456092412077    13.8244028681163 
8  1  1  -0.1797  -0.000731397669382516   -0.4939506244592    12.531938317158 
9  1  1  -0.1794   0.0069892617847414    0.430359181552718    11.319914036903 
10  1  1  -0.1797   0.000204741157795993   -0.375241313051025    10.027408697543 
11  1  1  -0.1794   0.00613907886036297    0.549873650325683    8.81606336958215 
12  1  1  -0.1796   0.00117040579610502   -0.254891281050222    7.52184410731802 
13  1  1  -0.1789   0.00529502616845718    0.669944391005457    6.30831487928101 
14  1  1  -0.1791   0.00209223048295035   -0.140869628778598    5.01672436320348 
15  1  1  -0.1799   0.00435788269269022    0.767038282674285    3.79023088978369 
16  1  1  -0.1707  -0.000711546844749816   -0.0641935294694499    2.50915912045756 
17  1  1  -0.261   0.00323438693344901    0.822536259383988    1.26764418648916 
18  1  2   0.5098   0    0    0 
19  1  3  -0.4446  -0.00511313108729849   -1.21866160723204   -0.0530142240262435 
20  1  4  -0.5596   0.00186637137933121    0.77284201048258   -1.11055858147651 
21  1  5   0.0808  -0.00293595006202572   -0.666672854704126    22.2176143090611 
22  1  5   0.0808  -0.88527951576211    0.641120679831282    21.4091243689289 
23  1  5   0.0808   0.890676189612018    0.63364618265378    21.4093657007037 
24  1  5   0.0885  -0.889971922041493   -1.45465037291147    20.0472112312403 
25  1  5   0.0885   0.876602967457926   -1.46396140971202    20.0486346018206 
26  1  5   0.0895   0.889536629797599    0.745051094833933    18.8645207672852 
27  1  5   0.0895  -0.876169886529751    0.756135032979814    18.8643415626318 
28  1  5   0.0896  -0.890908935303903   -1.35697737934067    17.5204857869482 
29  1  5   0.0896   0.875711756343073   -1.37078967044058    17.5223836171115 
30  1  5   0.0896   0.894042648271421    0.846395276020045    16.3579299073447 
31  1  5   0.0896  -0.87268277999797    0.861614102456101    16.3586920938333 
32  1  5   0.09  -0.891424477159156   -1.24727537917619    15.0086358212105 
33  1  5   0.09   0.875326827641772   -1.26476047669349    15.0104853479128 
34  1  5   0.0897   0.898097088210777    0.955358025121407    13.853628588788 
35  1  5   0.0897  -0.868316817897642    0.974449670190767    13.8531294942703 
36  1  5   0.0902  -0.890272329318784   -1.13492119643553    12.5045672652847 
37  1  5   0.0902   0.876096191580562   -1.15166188594892    12.5024012804121 
38  1  5   0.0897   0.895752637341257    1.07241908313958    11.3513291915843 
39  1  5   0.0897  -0.870914676664506    1.08714638672153    11.3512189515624 
40  1  5   0.0904  -0.888148657548903   -1.01902884139928    9.99708222314344 
41  1  5   0.0904   0.878344698777713   -1.03271487506544    9.99653611288668 
42  1  5   0.0896   0.893670298592121    1.19345471869417    8.8477044526725 
43  1  5   0.0896  -0.873216053520694    1.20457027234626    8.84750827807204 
44  1  5   0.0912  -0.885472180982206   -0.900099722590137    7.49359188657881 
45  1  5   0.0912   0.880542198846126   -0.910163143888205    7.49076199412041 
46  1  5   0.0895   0.891575869314596    1.31502006009347    6.33783407003589 
47  1  5   0.0895  -0.875208309122612    1.3230647729001    6.33957459289293 
48  1  5   0.0938  -0.88307578845205   -0.78824076099708    4.99337949599793 
49  1  5   0.0938   0.881499471759598   -0.795926361747682    4.99260033613373 
50  1  5   0.0884   0.890657008769241    1.41254135537228    3.81238657648897 
51  1  5   0.0884  -0.876208464155657    1.42019678030521    3.81319053853235 
52  1  5   0.1111  -0.884862606053625   -0.714203824821932    2.49693485624229 
53  1  5   0.1111   0.876405169640808   -0.723335829691772    2.49589404528938 
54  1  5   0.1212   0.899938673239342    1.45234473985252    1.26775072547048 
55  1  5   0.1212  -0.887210193603376    1.46102875224908    1.26677467655766 
56  1  6   0.4513   0.00497328040464171    1.72995719198304   -0.919760195588047 

Bonds

1  1  2  1
2  1  3  2
3  1  4  3
4  1  5  4
5  1  6  5
6  1  7  6
7  1  8  7
8  1  9  8
9  1  10  9
10  1  11  10
11  1  12  11
12  1  13  12
13  1  14  13
14  1  15  14
15  1  16  15
16  1  17  16
17  2  18  17
18  3  19  18
19  4  20  18
20  5  21  1
21  5  22  1
22  5  23  1
23  5  24  2
24  5  25  2
25  5  26  3
26  5  27  3
27  5  28  4
28  5  29  4
29  5  30  5
30  5  31  5
31  5  32  6
32  5  33  6
33  5  34  7
34  5  35  7
35  5  36  8
36  5  37  8
37  5  38  9
38  5  39  9
39  5  40  10
40  5  41  10
41  5  42  11
42  5  43  11
43  5  44  12
44  5  45  12
45  5  46  13
46  5  47  13
47  5  48  14
48  5  49  14
49  5  50  15
50  5  51  15
51  5  52  16
52  5  53  16
53  5  54  17
54  5  55  17
55  6  56  20

Angles

1  1  1  2  3
2  1  2  3  4
3  1  3  4  5
4  1  4  5  6
5  1  5  6  7
6  1  6  7  8
7  1  7  8  9
8  1  8  9  10
9  1  9  10  11
10  1  10  11  12
11  1  11  12  13
12  1  12  13  14
13  1  13  14  15
14  1  14  15  16
15  1  15  16  17
16  2  16  17  18
17  3  17  18  19
18  4  17  18  20
19  5  2  1  21
20  5  2  1  22
21  5  2  1  23
22  5  1  2  24
23  5  1  2  25
24  5  2  3  26
25  5  2  3  27
26  5  3  4  28
27  5  3  4  29
28  5  4  5  30
29  5  4  5  31
30  5  5  6  32
31  5  5  6  33
32  5  6  7  34
33  5  6  7  35
34  5  7  8  36
35  5  7  8  37
36  5  8  9  38
37  5  8  9  39
38  5  9  10  40
39  5  9  10  41
40  5  10  11  42
41  5  10  11  43
42  5  11  12  44
43  5  11  12  45
44  5  12  13  46
45  5  12  13  47
46  5  13  14  48
47  5  13  14  49
48  5  14  15  50
49  5  14  15  51
50  5  15  16  52
51  5  15  16  53
52  5  16  17  54
53  5  16  17  55
54  6  18  20  56
55  7  18  17  55
56  5  16  15  50
57  5  12  11  42
58  8  50  15  51
59  8  44  12  45
60  5  10  9  39
61  7  18  17  54
62  8  32  6  33
63  5  7  6  32
64  5  6  5  30
65  5  3  2  25
66  5  5  4  28
67  5  9  8  37
68  8  40  10  41
69  5  9  8  36
70  5  11  10  41
71  5  17  16  53
72  8  52  16  53
73  5  15  14  49
74  5  11  10  40
75  5  6  5  31
76  5  14  13  47
77  8  36  8  37
78  5  17  16  52
79  5  8  7  35
80  8  21  1  23
81  8  54  17  55
82  8  24  2  25
83  5  13  12  45
84  9  19  18  20
85  5  4  3  27
86  5  14  13  46
87  5  4  3  26
88  5  8  7  34
89  8  34  7  35
90  5  5  4  29
91  8  28  4  29
92  8  26  3  27
93  5  10  9  38
94  8  42  11  43
95  8  22  1  23
96  5  16  15  51
97  8  46  13  47
98  8  48  14  49
99  5  15  14  48
100  5  13  12  44
101  5  12  11  43
102  8  21  1  22
103  5  3  2  24
104  5  7  6  33
105  8  30  5  31
106  8  38  9  39

Dihedrals

1  1  4  3  2  1
2  1  5  4  3  2
3  1  6  5  4  3
4  1  7  6  5  4
5  1  8  7  6  5
6  1  9  8  7  6
7  1  10  9  8  7
8  1  11  10  9  8
9  1  12  11  10  9
10  1  13  12  11  10
11  1  14  13  12  11
12  1  15  14  13  12
13  1  16  15  14  13
14  1  17  16  15  14
15  2  18  17  16  15
16  3  19  18  17  16
17  4  21  1  2  3
18  5  56  20  18  17
19  4  27  3  4  5
20  4  55  17  16  52
21  4  45  12  11  10
22  4  40  10  9  39
23  3  54  17  18  20
24  4  28  4  3  2
25  4  42  11  12  13
26  4  35  7  8  9
27  4  54  17  16  53
28  4  51  15  14  48
29  4  50  15  14  49
30  4  54  17  16  15
31  4  41  10  11  12
32  3  55  17  18  20
33  4  29  4  3  26
34  4  28  4  3  27
35  4  38  9  8  7
36  4  52  16  15  50
37  4  23  1  2  3
38  4  31  5  6  7
39  4  38  9  10  11
40  4  48  14  13  12
41  4  41  10  9  8
42  6  53  16  17  18
43  4  26  3  2  1
44  4  35  7  6  5
45  4  32  6  7  8
46  4  46  13  12  44
47  4  32  6  5  30
48  4  40  10  9  38
49  4  31  5  4  29
50  4  40  10  9  8
51  4  33  6  5  31
52  4  30  5  4  29
53  4  31  5  4  28
54  4  33  6  7  8
55  4  51  15  14  49
56  4  49  14  15  16
57  4  44  12  11  43
58  4  36  8  9  10
59  4  30  5  4  3
60  4  26  3  2  25
61  4  27  3  2  24
62  4  37  8  7  6
63  4  34  7  8  9
64  4  37  8  7  35
65  7  20  18  17  16
66  4  24  2  1  22
67  4  51  15  16  17
68  4  43  11  10  41
69  4  25  2  1  21
70  4  42  11  10  40
71  4  47  13  14  15
72  4  29  4  3  2
73  4  55  17  16  53
74  4  43  11  10  9
75  4  26  3  4  5
76  4  45  12  11  43
77  4  39  9  8  7
78  4  53  16  15  51
79  4  36  8  7  35
80  4  37  8  7  34
81  4  52  16  15  14
82  4  47  13  12  45
83  4  55  17  16  15
84  4  50  15  14  48
85  4  44  12  11  42
86  4  43  11  12  13
87  4  49  14  13  12
88  4  48  14  13  46
89  4  51  15  14  13
90  4  54  17  16  52
91  4  33  6  5  30
92  4  27  3  2  1
93  4  29  4  5  6
94  4  24  2  3  4
95  4  31  5  4  3
96  4  46  13  12  45
97  4  47  13  12  44
98  4  28  4  5  6
99  4  33  6  5  4
100  4  30  5  6  7
101  4  43  11  10  40
102  4  42  11  10  41
103  4  24  2  1  21
104  4  49  14  13  46
105  4  48  14  13  47
106  4  34  7  6  5
107  4  34  7  6  32
108  4  32  6  5  4
109  3  54  17  18  19
110  4  50  15  16  17
111  4  46  13  14  15
112  4  25  2  1  23
113  4  45  12  11  42
114  4  26  3  2  24
115  4  22  1  2  3
116  4  39  9  10  11
117  4  36  8  7  6
118  4  53  16  15  14
119  4  40  10  11  12
120  4  24  2  1  23
121  4  25  2  1  22
122  4  38  9  8  37
123  4  45  12  13  14
124  4  47  13  12  11
125  6  52  16  17  18
126  4  44  12  13  14
127  4  35  7  6  32
128  4  34  7  6  33
129  4  46  13  12  11
130  4  30  5  4  28
131  4  41  10  9  39
132  8  56  20  18  19
133  4  39  9  8  36
134  4  29  4  3  27
135  4  36  8  7  34
136  4  41  10  9  38
137  4  39  9  8  37
138  4  48  14  15  16
139  3  55  17  18  19
140  4  42  11  10  9
141  4  25  2  3  4
142  4  52  16  15  51
143  4  53  16  15  50
144  4  32  6  5  31
145  4  49  14  13  47
146  4  28  4  3  26
147  4  50  15  14  13
148  4  27  3  2  25
149  4  38  9  8  36
150  4  37  8  9  10
151  4  35  7  6  33
152  4  44  12  11  10

Impropers

1  1  18  17  19  20
2  2  1  2  21  22
3  2  1  2  21  23
4  2  2  1  3  24
5  2  2  25  3  1
6  2  3  26  4  2
7  2  3  2  27  4
8  2  4  3  28  5
9  2  4  5  3  29
10  2  5  4  30  6
11  2  5  4  6  31
12  2  6  5  7  32
13  2  6  33  5  7
14  2  7  34  6  8
15  2  7  35  6  8
16  2  8  9  36  7
17  2  8  9  37  7
18  2  9  10  38  8
19  2  9  10  39  8
20  2  10  9  11  40
21  2  10  41  11  9
22  2  11  42  12  10
23  2  11  10  43  12
24  2  12  11  44  13
25  2  12  13  11  45
26  2  13  12  46  14
27  2  13  12  14  47
28  2  14  13  15  48
29  2  14  49  13  15
30  2  15  50  14  16
31  2  15  51  14  16
32  2  16  17  52  15
33  2  16  17  53  15
34  2  17  18  54  16
35  2  17  18  55  16
