#C18_usat_trans

54 atoms
3 atom types

53 bonds
5 bond types

102 angles
8 angle types

142 dihedrals
8 dihedral types

34 impropers
2 improper types

-6.649  6.649  xlo xhi
-3.854995  3.854995  ylo yhi
-7.87183  7.87183  zlo zhi

Masses

1  12.011
2  12.011
3  1.008

Pair Coeffs

1  0.066  3.5
2  0.076  3.55
3  0.03  2.5

Bond Coeffs

1  268.0  1.529
2  317.0  1.51
3  549.0  1.34
4  340.0  1.09
5  340.0  1.08

Angle Coeffs

1  58.35  112.7
2  63.0  111.1
3  70.0  124.0
4  37.5  110.7
5  35.0  117.0
6  35.0  120.0
7  35.0  109.5
8  33.0  107.8

Dihedral Coeffs

1  1.3  -0.2  0.2  0.0
2  0.346  0.405  -0.904  0.0
3  0.0  14.0  0.0  0.0
4  0.0  0.0  0.3  0.0
5  0.0  0.0  -0.372  0.0
6  0.0  0.0  0.366  0.0
7  0.0  0.0  0.318  0.0
8  0.0  -8.0  0.0  0.0

Improper Coeffs

1  0.0  -1.0  2.0
2  2.5  -1.0  2.0

Atoms # full

1  1  1  -0.2391   6.265    2.966545   -6.84694 
2  1  1  -0.1804   4.748    2.966545   -6.84694 
3  1  1  -0.1801   4.22    2.966545   -5.4205 
4  1  1  -0.1808   2.699    2.964745   -5.41563 
5  1  1  -0.1805   2.18    2.966555   -3.98751 
6  1  1  -0.1819   0.659999999999999    2.962955   -3.98264 
7  1  1  -0.1781   0.141    2.962965   -2.55436 
8  1  1  -0.1471  -1.379    2.961165   -2.55111 
9  1  2  -0.1928  -1.899    2.962945   -1.14679 
10  1  2  -0.1977  -3.059    2.383235   -0.82589 
11  1  1  -0.1458  -3.578    2.383625    0.57903 
12  1  1  -0.1755  -3.75    0.959005    1.07675 
13  1  1  -0.1816  -4.279    0.964245    2.50271 
14  1  1  -0.1806  -4.453   -0.460285    3.00138 
15  1  1  -0.1809  -4.983   -0.455055    4.42629 
16  1  1  -0.18  -5.156   -1.880735    4.92599 
17  1  1  -0.1804  -5.685   -1.883595    6.35195 
18  1  1  -0.2391  -5.854   -3.306885    6.84822 
19  1  3   0.0809   6.643    2.965245   -7.87183 
20  1  3   0.0809   6.649    2.079495   -6.33431 
21  1  3   0.0809   6.649    3.854995   -6.33648 
22  1  3   0.089   4.38    2.082805   -7.38108 
23  1  3   0.089   4.381    3.849215   -7.38185 
24  1  3   0.0901   4.588    3.850705   -4.88587 
25  1  3   0.0901   4.591    2.084545   -4.88368 
26  1  3   0.0901   2.326    2.078985   -5.94467 
27  1  3   0.0901   2.324    3.846675   -5.94981 
28  1  3   0.0906   2.551    3.853635   -3.4577 
29  1  3   0.0906   2.556    2.086035   -3.45281 
30  1  3   0.0903   0.29    2.075825   -4.51324 
31  1  3   0.0903   0.284999999999999    3.844085   -4.51842 
32  1  3   0.0925   0.518    3.852665   -2.02884 
33  1  3   0.0925   0.524    2.085035   -2.01958 
34  1  3   0.0985  -1.742    2.076745   -3.08681 
35  1  3   0.0985  -1.751    3.849715   -3.0701 
36  1  3   0.1394  -1.301    3.452845   -0.38374 
37  1  3   0.1384  -3.657    1.894725   -1.58801 
38  1  3   0.0955  -4.537    2.911525    0.6053 
39  1  3   0.0955  -2.891    2.922145    1.23994 
40  1  3   0.093  -2.79    0.427705    1.04023 
41  1  3   0.093  -4.445    0.414525    0.42504 
42  1  3   0.0901  -5.24    1.491405    2.54226 
43  1  3   0.0901  -3.584    1.504655    3.15689 
44  1  3   0.0907  -3.49   -0.986745    2.96387 
45  1  3   0.0907  -5.147   -1.001545    2.34701 
46  1  3   0.0901  -5.945    0.0710649999999999    4.4621 
47  1  3   0.0901  -4.288    0.0884849999999999    5.07803 
48  1  3   0.0901  -4.192   -2.404465    4.88287 
49  1  3   0.0901  -5.848   -2.421005    4.26846 
50  1  3   0.0891  -6.649   -1.362485    6.39213 
51  1  3   0.0891  -4.992   -1.344575    7.00898 
52  1  3   0.0809  -6.558   -3.854995    6.21481 
53  1  3   0.0809  -6.236   -3.307805    7.87183 
54  1  3   0.0809  -4.895   -3.836205    6.83213 

Bonds

1  1  2  1
2  1  3  2
3  1  4  3
4  1  5  4
5  1  6  5
6  1  7  6
7  1  8  7
8  2  9  8
9  3  10  9
10  2  11  10
11  1  12  11
12  1  13  12
13  1  14  13
14  1  15  14
15  1  16  15
16  1  17  16
17  1  18  17
18  4  19  1
19  4  20  1
20  4  21  1
21  4  22  2
22  4  23  2
23  4  24  3
24  4  25  3
25  4  26  4
26  4  27  4
27  4  28  5
28  4  29  5
29  4  30  6
30  4  31  6
31  4  32  7
32  4  33  7
33  4  34  8
34  4  35  8
35  5  36  9
36  5  37  10
37  4  38  11
38  4  39  11
39  4  40  12
40  4  41  12
41  4  42  13
42  4  43  13
43  4  44  14
44  4  45  14
45  4  46  15
46  4  47  15
47  4  48  16
48  4  49  16
49  4  50  17
50  4  51  17
51  4  52  18
52  4  53  18
53  4  54  18

Angles

1  1  1  2  3
2  1  2  3  4
3  1  3  4  5
4  1  4  5  6
5  1  5  6  7
6  1  6  7  8
7  2  7  8  9
8  3  8  9  10
9  3  9  10  11
10  2  10  11  12
11  1  11  12  13
12  1  12  13  14
13  1  13  14  15
14  1  14  15  16
15  1  15  16  17
16  1  16  17  18
17  4  2  1  19
18  4  2  1  20
19  4  2  1  21
20  4  1  2  22
21  4  1  2  23
22  4  2  3  24
23  4  2  3  25
24  4  3  4  26
25  4  3  4  27
26  4  4  5  28
27  4  4  5  29
28  4  5  6  30
29  4  5  6  31
30  4  6  7  32
31  4  6  7  33
32  4  7  8  34
33  4  7  8  35
34  5  8  9  36
35  6  9  10  37
36  7  10  11  38
37  7  10  11  39
38  4  11  12  40
39  4  11  12  41
40  4  12  13  42
41  4  12  13  43
42  4  13  14  44
43  4  13  14  45
44  4  14  15  46
45  4  14  15  47
46  4  15  16  48
47  4  15  16  49
48  4  16  17  50
49  4  16  17  51
50  4  17  18  52
51  4  17  18  53
52  4  17  18  54
53  8  42  13  43
54  8  40  12  41
55  8  19  1  21
56  4  4  3  24
57  8  38  11  39
58  4  12  11  38
59  4  16  15  46
60  8  20  1  21
61  4  5  4  27
62  8  44  14  45
63  4  7  6  31
64  8  24  3  25
65  8  28  5  29
66  8  34  8  35
67  4  5  4  26
68  4  14  13  42
69  4  18  17  51
70  7  9  8  34
71  4  12  11  39
72  4  8  7  32
73  4  8  7  33
74  8  46  15  47
75  4  18  17  50
76  4  14  13  43
77  8  32  7  33
78  4  16  15  47
79  4  17  16  48
80  4  4  3  25
81  4  15  14  44
82  8  50  17  51
83  4  6  5  28
84  8  22  2  23
85  8  26  4  27
86  4  15  14  45
87  4  13  12  40
88  4  13  12  41
89  8  53  18  54
90  8  52  18  53
91  4  7  6  30
92  8  30  6  31
93  4  3  2  22
94  4  3  2  23
95  7  9  8  35
96  8  48  16  49
97  4  17  16  49
98  5  11  10  37
99  8  52  18  54
100  6  10  9  36
101  8  19  1  20
102  4  6  5  29

Dihedrals

1  1  4  3  2  1
2  1  5  4  3  2
3  1  6  5  4  3
4  1  7  6  5  4
5  1  8  7  6  5
6  1  9  8  7  6
7  2  10  9  8  7
8  3  11  10  9  8
9  2  12  11  10  9
10  1  13  12  11  10
11  1  14  13  12  11
12  1  15  14  13  12
13  1  16  15  14  13
14  1  17  16  15  14
15  1  18  17  16  15
16  4  19  1  2  3
17  4  52  18  17  16
18  4  34  8  7  6
19  5  38  11  10  9
20  4  54  18  17  16
21  4  25  3  4  5
22  4  43  13  12  41
23  4  47  15  14  13
24  4  44  14  15  16
25  4  47  15  14  44
26  4  46  15  14  45
27  5  35  8  9  10
28  4  51  17  16  15
29  4  42  13  12  11
30  4  23  2  1  21
31  4  40  12  11  38
32  4  47  15  14  45
33  4  33  7  6  30
34  4  32  7  6  31
35  6  32  7  8  9
36  4  33  7  6  31
37  4  28  5  4  3
38  4  23  2  3  4
39  4  24  3  2  22
40  4  27  4  3  25
41  4  30  6  5  28
42  4  48  16  17  18
43  4  35  8  7  33
44  7  38  11  10  37
45  8  36  9  8  7
46  4  45  14  13  12
47  4  48  16  15  46
48  4  46  15  14  13
49  4  46  15  16  17
50  4  49  16  15  14
51  4  44  14  13  12
52  4  26  4  3  2
53  4  49  16  15  46
54  4  48  16  15  47
55  4  28  5  6  7
56  4  33  7  6  5
57  4  30  6  7  8
58  4  51  17  16  49
59  4  22  2  1  20
60  3  36  9  10  11
61  6  40  12  11  10
62  4  34  8  7  33
63  4  25  3  2  23
64  4  32  7  6  30
65  4  21  1  2  3
66  4  54  18  17  50
67  4  27  4  5  6
68  4  52  18  17  50
69  4  38  11  12  13
70  6  41  12  11  10
71  4  54  18  17  51
72  5  39  11  10  9
73  4  30  6  5  4
74  4  45  14  13  42
75  4  44  14  13  43
76  3  37  10  9  8
77  4  24  3  4  5
78  4  41  12  11  39
79  4  48  16  15  14
80  4  49  16  15  47
81  4  45  14  15  16
82  4  47  15  16  17
83  4  22  2  1  19
84  4  26  4  3  25
85  4  27  4  3  24
86  4  39  11  12  13
87  4  43  13  12  40
88  4  42  13  12  41
89  4  50  17  16  49
90  4  51  17  16  48
91  4  31  6  7  8
92  4  32  7  6  5
93  4  27  4  3  2
94  4  29  5  6  7
95  4  42  13  12  40
96  4  45  14  13  43
97  4  53  18  17  16
98  4  44  14  13  42
99  5  34  8  9  10
100  4  50  17  16  15
101  4  35  8  7  6
102  4  31  6  5  29
103  4  43  13  12  11
104  4  40  12  11  39
105  4  41  12  11  38
106  4  40  12  13  14
107  4  34  8  7  32
108  4  29  5  4  27
109  4  24  3  2  23
110  4  25  3  2  22
111  4  24  3  2  1
112  6  33  7  8  9
113  4  53  18  17  51
114  4  20  1  2  3
115  3  37  10  9  36
116  4  28  5  4  26
117  4  52  18  17  51
118  4  53  18  17  50
119  4  26  4  5  6
120  4  29  5  4  3
121  7  39  11  10  37
122  4  50  17  16  48
123  7  36  9  8  34
124  4  23  2  1  20
125  4  22  2  1  21
126  4  22  2  3  4
127  8  37  10  11  12
128  4  25  3  2  1
129  4  42  13  14  15
130  4  35  8  7  32
131  4  49  16  17  18
132  4  29  5  4  26
133  4  28  5  4  27
134  4  41  12  13  14
135  4  46  15  14  44
136  4  31  6  5  4
137  4  26  4  3  24
138  4  43  13  14  15
139  7  36  9  8  35
140  4  23  2  1  19
141  4  30  6  5  29
142  4  31  6  5  28

Impropers

1  1  1  2  19  20
2  1  1  2  19  21
3  1  2  1  3  22
4  1  2  1  3  23
5  1  3  2  4  24
6  1  3  25  2  4
7  1  4  26  3  5
8  1  4  27  5  3
9  1  5  4  28  6
10  1  5  4  29  6
11  1  6  5  30  7
12  1  6  7  5  31
13  1  7  8  6  32
14  1  7  33  6  8
15  1  8  9  34  7
16  1  8  9  35  7
17  2  9  10  36  8
18  2  10  9  11  37
19  1  11  10  12  38
20  1  11  10  12  39
21  1  12  11  13  40
22  1  12  41  11  13
23  1  13  42  12  14
24  1  13  43  12  14
25  1  14  44  13  15
26  1  14  13  45  15
27  1  15  16  46  14
28  1  15  16  47  14
29  1  16  17  15  48
30  1  16  49  17  15
31  1  17  50  18  16
32  1  17  18  51  16
33  1  18  17  52  53
34  1  18  17  52  54
