LAMMPS data file Created by LigParGen - (Written by Leela S. Dodda)

      54 atoms
      53 bonds
     102 angles
     142 dihedrals
      34 impropers
 
      54 atom types
      53 bond types
     102 angle types
     142 dihedral types
      34 improper types
 
  -11.914090    38.085910 xlo xhi
   -5.821540    44.178460 ylo yhi
   -1.024890    48.975110 zlo zhi

Masses

       1     12.011  
       2     12.011  
       3     12.011  
       4     12.011  
       5     12.011  
       6     12.011  
       7     12.011  
       8     12.011  
       9     12.011  
      10     12.011  
      11     12.011  
      12     12.011  
      13     12.011  
      14     12.011  
      15     12.011  
      16     12.011  
      17     12.011  
      18     12.011  
      19      1.008  
      20      1.008  
      21      1.008  
      22      1.008  
      23      1.008  
      24      1.008  
      25      1.008  
      26      1.008  
      27      1.008  
      28      1.008  
      29      1.008  
      30      1.008  
      31      1.008  
      32      1.008  
      33      1.008  
      34      1.008  
      35      1.008  
      36      1.008  
      37      1.008  
      38      1.008  
      39      1.008  
      40      1.008  
      41      1.008  
      42      1.008  
      43      1.008  
      44      1.008  
      45      1.008  
      46      1.008  
      47      1.008  
      48      1.008  
      49      1.008  
      50      1.008  
      51      1.008  
      52      1.008  
      53      1.008  
      54      1.008  

Pair Coeffs 

       1      0.066  3.5000000 
       2      0.066  3.5000000 
       3      0.066  3.5000000 
       4      0.066  3.5000000 
       5      0.066  3.5000000 
       6      0.066  3.5000000 
       7      0.066  3.5000000 
       8      0.066  3.5000000 
       9      0.076  3.5500000 
      10      0.076  3.5500000 
      11      0.066  3.5000000 
      12      0.066  3.5000000 
      13      0.066  3.5000000 
      14      0.066  3.5000000 
      15      0.066  3.5000000 
      16      0.066  3.5000000 
      17      0.066  3.5000000 
      18      0.066  3.5000000 
      19      0.030  2.5000000 
      20      0.030  2.5000000 
      21      0.030  2.5000000 
      22      0.030  2.5000000 
      23      0.030  2.5000000 
      24      0.030  2.5000000 
      25      0.030  2.5000000 
      26      0.030  2.5000000 
      27      0.030  2.5000000 
      28      0.030  2.5000000 
      29      0.030  2.5000000 
      30      0.030  2.5000000 
      31      0.030  2.5000000 
      32      0.030  2.5000000 
      33      0.030  2.5000000 
      34      0.030  2.5000000 
      35      0.030  2.5000000 
      36      0.030  2.5000000 
      37      0.030  2.5000000 
      38      0.030  2.5000000 
      39      0.030  2.5000000 
      40      0.030  2.5000000 
      41      0.030  2.5000000 
      42      0.030  2.5000000 
      43      0.030  2.5000000 
      44      0.030  2.5000000 
      45      0.030  2.5000000 
      46      0.030  2.5000000 
      47      0.030  2.5000000 
      48      0.030  2.5000000 
      49      0.030  2.5000000 
      50      0.030  2.5000000 
      51      0.030  2.5000000 
      52      0.030  2.5000000 
      53      0.030  2.5000000 
      54      0.030  2.5000000 

Bond Coeffs 

       1   268.0000     1.5290 
       2   268.0000     1.5290 
       3   268.0000     1.5290 
       4   268.0000     1.5290 
       5   268.0000     1.5290 
       6   268.0000     1.5290 
       7   268.0000     1.5290 
       8   317.0000     1.5100 
       9   549.0000     1.3400 
      10   317.0000     1.5100 
      11   268.0000     1.5290 
      12   268.0000     1.5290 
      13   268.0000     1.5290 
      14   268.0000     1.5290 
      15   268.0000     1.5290 
      16   268.0000     1.5290 
      17   268.0000     1.5290 
      18   340.0000     1.0900 
      19   340.0000     1.0900 
      20   340.0000     1.0900 
      21   340.0000     1.0900 
      22   340.0000     1.0900 
      23   340.0000     1.0900 
      24   340.0000     1.0900 
      25   340.0000     1.0900 
      26   340.0000     1.0900 
      27   340.0000     1.0900 
      28   340.0000     1.0900 
      29   340.0000     1.0900 
      30   340.0000     1.0900 
      31   340.0000     1.0900 
      32   340.0000     1.0900 
      33   340.0000     1.0900 
      34   340.0000     1.0900 
      35   340.0000     1.0800 
      36   340.0000     1.0800 
      37   340.0000     1.0900 
      38   340.0000     1.0900 
      39   340.0000     1.0900 
      40   340.0000     1.0900 
      41   340.0000     1.0900 
      42   340.0000     1.0900 
      43   340.0000     1.0900 
      44   340.0000     1.0900 
      45   340.0000     1.0900 
      46   340.0000     1.0900 
      47   340.0000     1.0900 
      48   340.0000     1.0900 
      49   340.0000     1.0900 
      50   340.0000     1.0900 
      51   340.0000     1.0900 
      52   340.0000     1.0900 
      53   340.0000     1.0900 

Angle Coeffs 

       1     58.350    112.700
       2     58.350    112.700
       3     58.350    112.700
       4     58.350    112.700
       5     58.350    112.700
       6     58.350    112.700
       7     63.000    111.100
       8     70.000    124.000
       9     70.000    124.000
      10     63.000    111.100
      11     58.350    112.700
      12     58.350    112.700
      13     58.350    112.700
      14     58.350    112.700
      15     58.350    112.700
      16     58.350    112.700
      17     37.500    110.700
      18     37.500    110.700
      19     37.500    110.700
      20     37.500    110.700
      21     37.500    110.700
      22     37.500    110.700
      23     37.500    110.700
      24     37.500    110.700
      25     37.500    110.700
      26     37.500    110.700
      27     37.500    110.700
      28     37.500    110.700
      29     37.500    110.700
      30     37.500    110.700
      31     37.500    110.700
      32     37.500    110.700
      33     37.500    110.700
      34     35.000    117.000
      35     35.000    120.000
      36     35.000    109.500
      37     35.000    109.500
      38     37.500    110.700
      39     37.500    110.700
      40     37.500    110.700
      41     37.500    110.700
      42     37.500    110.700
      43     37.500    110.700
      44     37.500    110.700
      45     37.500    110.700
      46     37.500    110.700
      47     37.500    110.700
      48     37.500    110.700
      49     37.500    110.700
      50     37.500    110.700
      51     37.500    110.700
      52     37.500    110.700
      53     33.000    107.800
      54     33.000    107.800
      55     33.000    107.800
      56     37.500    110.700
      57     33.000    107.800
      58     37.500    110.700
      59     37.500    110.700
      60     33.000    107.800
      61     37.500    110.700
      62     33.000    107.800
      63     37.500    110.700
      64     33.000    107.800
      65     33.000    107.800
      66     33.000    107.800
      67     37.500    110.700
      68     37.500    110.700
      69     37.500    110.700
      70     35.000    109.500
      71     37.500    110.700
      72     37.500    110.700
      73     37.500    110.700
      74     33.000    107.800
      75     37.500    110.700
      76     37.500    110.700
      77     33.000    107.800
      78     37.500    110.700
      79     37.500    110.700
      80     37.500    110.700
      81     37.500    110.700
      82     33.000    107.800
      83     37.500    110.700
      84     33.000    107.800
      85     33.000    107.800
      86     37.500    110.700
      87     37.500    110.700
      88     37.500    110.700
      89     33.000    107.800
      90     33.000    107.800
      91     37.500    110.700
      92     33.000    107.800
      93     37.500    110.700
      94     37.500    110.700
      95     35.000    109.500
      96     33.000    107.800
      97     37.500    110.700
      98     35.000    117.000
      99     33.000    107.800
     100     35.000    120.000
     101     33.000    107.800
     102     37.500    110.700

Dihedral Coeffs  

       1      1.300     -0.200      0.200      0.000 
       2      1.300     -0.200      0.200      0.000 
       3      1.300     -0.200      0.200      0.000 
       4      1.300     -0.200      0.200      0.000 
       5      1.300     -0.200      0.200      0.000 
       6      1.300     -0.200      0.200      0.000 
       7      0.346      0.405     -0.904      0.000 
       8      0.000     14.000      0.000      0.000 
       9      0.346      0.405     -0.904      0.000 
      10      1.300     -0.200      0.200      0.000 
      11      1.300     -0.200      0.200      0.000 
      12      1.300     -0.200      0.200      0.000 
      13      1.300     -0.200      0.200      0.000 
      14      1.300     -0.200      0.200      0.000 
      15      1.300     -0.200      0.200      0.000 
      16      0.000      0.000      0.300      0.000 
      17      0.000      0.000      0.300      0.000 
      18      0.000      0.000      0.300      0.000 
      19      0.000      0.000     -0.372      0.000 
      20      0.000      0.000      0.300      0.000 
      21      0.000      0.000      0.300      0.000 
      22      0.000      0.000      0.300      0.000 
      23      0.000      0.000      0.300      0.000 
      24      0.000      0.000      0.300      0.000 
      25      0.000      0.000      0.300      0.000 
      26      0.000      0.000      0.300      0.000 
      27      0.000      0.000     -0.372      0.000 
      28      0.000      0.000      0.300      0.000 
      29      0.000      0.000      0.300      0.000 
      30      0.000      0.000      0.300      0.000 
      31      0.000      0.000      0.300      0.000 
      32      0.000      0.000      0.300      0.000 
      33      0.000      0.000      0.300      0.000 
      34      0.000      0.000      0.300      0.000 
      35      0.000      0.000      0.366      0.000 
      36      0.000      0.000      0.300      0.000 
      37      0.000      0.000      0.300      0.000 
      38      0.000      0.000      0.300      0.000 
      39      0.000      0.000      0.300      0.000 
      40      0.000      0.000      0.300      0.000 
      41      0.000      0.000      0.300      0.000 
      42      0.000      0.000      0.300      0.000 
      43      0.000      0.000      0.300      0.000 
      44      0.000      0.000      0.318      0.000 
      45      0.000     -8.000      0.000      0.000 
      46      0.000      0.000      0.300      0.000 
      47      0.000      0.000      0.300      0.000 
      48      0.000      0.000      0.300      0.000 
      49      0.000      0.000      0.300      0.000 
      50      0.000      0.000      0.300      0.000 
      51      0.000      0.000      0.300      0.000 
      52      0.000      0.000      0.300      0.000 
      53      0.000      0.000      0.300      0.000 
      54      0.000      0.000      0.300      0.000 
      55      0.000      0.000      0.300      0.000 
      56      0.000      0.000      0.300      0.000 
      57      0.000      0.000      0.300      0.000 
      58      0.000      0.000      0.300      0.000 
      59      0.000      0.000      0.300      0.000 
      60      0.000     14.000      0.000      0.000 
      61      0.000      0.000      0.366      0.000 
      62      0.000      0.000      0.300      0.000 
      63      0.000      0.000      0.300      0.000 
      64      0.000      0.000      0.300      0.000 
      65      0.000      0.000      0.300      0.000 
      66      0.000      0.000      0.300      0.000 
      67      0.000      0.000      0.300      0.000 
      68      0.000      0.000      0.300      0.000 
      69      0.000      0.000      0.300      0.000 
      70      0.000      0.000      0.366      0.000 
      71      0.000      0.000      0.300      0.000 
      72      0.000      0.000     -0.372      0.000 
      73      0.000      0.000      0.300      0.000 
      74      0.000      0.000      0.300      0.000 
      75      0.000      0.000      0.300      0.000 
      76      0.000     14.000      0.000      0.000 
      77      0.000      0.000      0.300      0.000 
      78      0.000      0.000      0.300      0.000 
      79      0.000      0.000      0.300      0.000 
      80      0.000      0.000      0.300      0.000 
      81      0.000      0.000      0.300      0.000 
      82      0.000      0.000      0.300      0.000 
      83      0.000      0.000      0.300      0.000 
      84      0.000      0.000      0.300      0.000 
      85      0.000      0.000      0.300      0.000 
      86      0.000      0.000      0.300      0.000 
      87      0.000      0.000      0.300      0.000 
      88      0.000      0.000      0.300      0.000 
      89      0.000      0.000      0.300      0.000 
      90      0.000      0.000      0.300      0.000 
      91      0.000      0.000      0.300      0.000 
      92      0.000      0.000      0.300      0.000 
      93      0.000      0.000      0.300      0.000 
      94      0.000      0.000      0.300      0.000 
      95      0.000      0.000      0.300      0.000 
      96      0.000      0.000      0.300      0.000 
      97      0.000      0.000      0.300      0.000 
      98      0.000      0.000      0.300      0.000 
      99      0.000      0.000     -0.372      0.000 
     100      0.000      0.000      0.300      0.000 
     101      0.000      0.000      0.300      0.000 
     102      0.000      0.000      0.300      0.000 
     103      0.000      0.000      0.300      0.000 
     104      0.000      0.000      0.300      0.000 
     105      0.000      0.000      0.300      0.000 
     106      0.000      0.000      0.300      0.000 
     107      0.000      0.000      0.300      0.000 
     108      0.000      0.000      0.300      0.000 
     109      0.000      0.000      0.300      0.000 
     110      0.000      0.000      0.300      0.000 
     111      0.000      0.000      0.300      0.000 
     112      0.000      0.000      0.366      0.000 
     113      0.000      0.000      0.300      0.000 
     114      0.000      0.000      0.300      0.000 
     115      0.000     14.000      0.000      0.000 
     116      0.000      0.000      0.300      0.000 
     117      0.000      0.000      0.300      0.000 
     118      0.000      0.000      0.300      0.000 
     119      0.000      0.000      0.300      0.000 
     120      0.000      0.000      0.300      0.000 
     121      0.000      0.000      0.318      0.000 
     122      0.000      0.000      0.300      0.000 
     123      0.000      0.000      0.318      0.000 
     124      0.000      0.000      0.300      0.000 
     125      0.000      0.000      0.300      0.000 
     126      0.000      0.000      0.300      0.000 
     127      0.000     -8.000      0.000      0.000 
     128      0.000      0.000      0.300      0.000 
     129      0.000      0.000      0.300      0.000 
     130      0.000      0.000      0.300      0.000 
     131      0.000      0.000      0.300      0.000 
     132      0.000      0.000      0.300      0.000 
     133      0.000      0.000      0.300      0.000 
     134      0.000      0.000      0.300      0.000 
     135      0.000      0.000      0.300      0.000 
     136      0.000      0.000      0.300      0.000 
     137      0.000      0.000      0.300      0.000 
     138      0.000      0.000      0.300      0.000 
     139      0.000      0.000      0.318      0.000 
     140      0.000      0.000      0.300      0.000 
     141      0.000      0.000      0.300      0.000 
     142      0.000      0.000      0.300      0.000 

Improper Coeffs 

       1      0.000      -1       2 
       2      0.000      -1       2 
       3      0.000      -1       2 
       4      0.000      -1       2 
       5      0.000      -1       2 
       6      0.000      -1       2 
       7      0.000      -1       2 
       8      0.000      -1       2 
       9      0.000      -1       2 
      10      0.000      -1       2 
      11      0.000      -1       2 
      12      0.000      -1       2 
      13      0.000      -1       2 
      14      0.000      -1       2 
      15      0.000      -1       2 
      16      0.000      -1       2 
      17      2.500      -1       2 
      18      2.500      -1       2 
      19      0.000      -1       2 
      20      0.000      -1       2 
      21      0.000      -1       2 
      22      0.000      -1       2 
      23      0.000      -1       2 
      24      0.000      -1       2 
      25      0.000      -1       2 
      26      0.000      -1       2 
      27      0.000      -1       2 
      28      0.000      -1       2 
      29      0.000      -1       2 
      30      0.000      -1       2 
      31      0.000      -1       2 
      32      0.000      -1       2 
      33      0.000      -1       2 
      34      0.000      -1       2 

Atoms 

     1      1      1 -0.23910000    1.000  1.00000  0.00000
     2      1      2 -0.18040000   -0.517  1.00000  0.00000
     3      1      3 -0.18010000   -1.045  1.00000  1.42644
     4      1      4 -0.18080000   -2.566  0.99820  1.43131
     5      1      5 -0.18050000   -3.085  1.00001  2.85943
     6      1      6 -0.18190000   -4.605  0.99641  2.86430
     7      1      7 -0.17810000   -5.124  0.99642  4.29258
     8      1      8 -0.14710000   -6.644  0.99462  4.29583
     9      1      9 -0.19280000   -7.164  0.99640  5.70015
    10      1     10 -0.19770000   -8.324  0.41669  6.02105
    11      1     11 -0.14580000   -8.843  0.41708  7.42597
    12      1     12 -0.17550000   -9.015 -1.00754  7.92369
    13      1     13 -0.18160000   -9.544 -1.00230  9.34965
    14      1     14 -0.18060000   -9.718 -2.42683  9.84832
    15      1     15 -0.18090000  -10.248 -2.42160 11.27323
    16      1     16 -0.18000000  -10.421 -3.84728 11.77293
    17      1     17 -0.18040000  -10.950 -3.85014 13.19889
    18      1     18 -0.23910000  -11.119 -5.27343 13.69516
    19      1     19 0.08090000    1.378  0.99870 -1.02489
    20      1     20 0.08090000    1.384  0.11295  0.51263
    21      1     21 0.08090000    1.384  1.88845  0.51046
    22      1     22 0.08900000   -0.885  0.11626 -0.53414
    23      1     23 0.08900000   -0.884  1.88267 -0.53491
    24      1     24 0.09010000   -0.677  1.88416  1.96107
    25      1     25 0.09010000   -0.674  0.11800  1.96326
    26      1     26 0.09010000   -2.939  0.11244  0.90227
    27      1     27 0.09010000   -2.941  1.88013  0.89713
    28      1     28 0.09060000   -2.714  1.88709  3.38924
    29      1     29 0.09060000   -2.709  0.11949  3.39413
    30      1     30 0.09030000   -4.975  0.10928  2.33370
    31      1     31 0.09030000   -4.980  1.87754  2.32852
    32      1     32 0.09250000   -4.747  1.88612  4.81810
    33      1     33 0.09250000   -4.741  0.11849  4.82736
    34      1     34 0.09850000   -7.007  0.11020  3.76013
    35      1     35 0.09850000   -7.016  1.88317  3.77684
    36      1     36 0.13940000   -6.566  1.48630  6.46320
    37      1     37 0.13840000   -8.922 -0.07182  5.25893
    38      1     38 0.09550000   -9.802  0.94498  7.45224
    39      1     39 0.09550000   -8.156  0.95560  8.08688
    40      1     40 0.09300000   -8.055 -1.53884  7.88717
    41      1     41 0.09300000   -9.710 -1.55202  7.27198
    42      1     42 0.09010000  -10.505 -0.47514  9.38920
    43      1     43 0.09010000   -8.849 -0.46189 10.00383
    44      1     44 0.09070000   -8.755 -2.95329  9.81081
    45      1     45 0.09070000  -10.412 -2.96809  9.19395
    46      1     46 0.09010000  -11.210 -1.89548 11.30904
    47      1     47 0.09010000   -9.553 -1.87806 11.92497
    48      1     48 0.09010000   -9.457 -4.37101 11.72981
    49      1     49 0.09010000  -11.113 -4.38755 11.11540
    50      1     50 0.08910000  -11.914 -3.32903 13.23907
    51      1     51 0.08910000  -10.257 -3.31112 13.85592
    52      1     52 0.08090000  -11.823 -5.82154 13.06175
    53      1     53 0.08090000  -11.501 -5.27435 14.71877
    54      1     54 0.08090000  -10.160 -5.80275 13.67907

Bonds 

     1      1      2      1
     2      2      3      2
     3      3      4      3
     4      4      5      4
     5      5      6      5
     6      6      7      6
     7      7      8      7
     8      8      9      8
     9      9     10      9
    10     10     11     10
    11     11     12     11
    12     12     13     12
    13     13     14     13
    14     14     15     14
    15     15     16     15
    16     16     17     16
    17     17     18     17
    18     18     19      1
    19     19     20      1
    20     20     21      1
    21     21     22      2
    22     22     23      2
    23     23     24      3
    24     24     25      3
    25     25     26      4
    26     26     27      4
    27     27     28      5
    28     28     29      5
    29     29     30      6
    30     30     31      6
    31     31     32      7
    32     32     33      7
    33     33     34      8
    34     34     35      8
    35     35     36      9
    36     36     37     10
    37     37     38     11
    38     38     39     11
    39     39     40     12
    40     40     41     12
    41     41     42     13
    42     42     43     13
    43     43     44     14
    44     44     45     14
    45     45     46     15
    46     46     47     15
    47     47     48     16
    48     48     49     16
    49     49     50     17
    50     50     51     17
    51     51     52     18
    52     52     53     18
    53     53     54     18

Angles 

     1      1      1      2      3
     2      2      2      3      4
     3      3      3      4      5
     4      4      4      5      6
     5      5      5      6      7
     6      6      6      7      8
     7      7      7      8      9
     8      8      8      9     10
     9      9      9     10     11
    10     10     10     11     12
    11     11     11     12     13
    12     12     12     13     14
    13     13     13     14     15
    14     14     14     15     16
    15     15     15     16     17
    16     16     16     17     18
    17     17      2      1     19
    18     18      2      1     20
    19     19      2      1     21
    20     20      1      2     22
    21     21      1      2     23
    22     22      2      3     24
    23     23      2      3     25
    24     24      3      4     26
    25     25      3      4     27
    26     26      4      5     28
    27     27      4      5     29
    28     28      5      6     30
    29     29      5      6     31
    30     30      6      7     32
    31     31      6      7     33
    32     32      7      8     34
    33     33      7      8     35
    34     34      8      9     36
    35     35      9     10     37
    36     36     10     11     38
    37     37     10     11     39
    38     38     11     12     40
    39     39     11     12     41
    40     40     12     13     42
    41     41     12     13     43
    42     42     13     14     44
    43     43     13     14     45
    44     44     14     15     46
    45     45     14     15     47
    46     46     15     16     48
    47     47     15     16     49
    48     48     16     17     50
    49     49     16     17     51
    50     50     17     18     52
    51     51     17     18     53
    52     52     17     18     54
    53     53     42     13     43
    54     54     40     12     41
    55     55     19      1     21
    56     56      4      3     24
    57     57     38     11     39
    58     58     12     11     38
    59     59     16     15     46
    60     60     20      1     21
    61     61      5      4     27
    62     62     44     14     45
    63     63      7      6     31
    64     64     24      3     25
    65     65     28      5     29
    66     66     34      8     35
    67     67      5      4     26
    68     68     14     13     42
    69     69     18     17     51
    70     70      9      8     34
    71     71     12     11     39
    72     72      8      7     32
    73     73      8      7     33
    74     74     46     15     47
    75     75     18     17     50
    76     76     14     13     43
    77     77     32      7     33
    78     78     16     15     47
    79     79     17     16     48
    80     80      4      3     25
    81     81     15     14     44
    82     82     50     17     51
    83     83      6      5     28
    84     84     22      2     23
    85     85     26      4     27
    86     86     15     14     45
    87     87     13     12     40
    88     88     13     12     41
    89     89     53     18     54
    90     90     52     18     53
    91     91      7      6     30
    92     92     30      6     31
    93     93      3      2     22
    94     94      3      2     23
    95     95      9      8     35
    96     96     48     16     49
    97     97     17     16     49
    98     98     11     10     37
    99     99     52     18     54
   100    100     10      9     36
   101    101     19      1     20
   102    102      6      5     29

Dihedrals

     1      1      4      3      2      1 
     2      2      5      4      3      2 
     3      3      6      5      4      3 
     4      4      7      6      5      4 
     5      5      8      7      6      5 
     6      6      9      8      7      6 
     7      7     10      9      8      7 
     8      8     11     10      9      8 
     9      9     12     11     10      9 
    10     10     13     12     11     10 
    11     11     14     13     12     11 
    12     12     15     14     13     12 
    13     13     16     15     14     13 
    14     14     17     16     15     14 
    15     15     18     17     16     15 
    16     16     19      1      2      3 
    17     17     52     18     17     16 
    18     18     34      8      7      6 
    19     19     38     11     10      9 
    20     20     54     18     17     16 
    21     21     25      3      4      5 
    22     22     43     13     12     41 
    23     23     47     15     14     13 
    24     24     44     14     15     16 
    25     25     47     15     14     44 
    26     26     46     15     14     45 
    27     27     35      8      9     10 
    28     28     51     17     16     15 
    29     29     42     13     12     11 
    30     30     23      2      1     21 
    31     31     40     12     11     38 
    32     32     47     15     14     45 
    33     33     33      7      6     30 
    34     34     32      7      6     31 
    35     35     32      7      8      9 
    36     36     33      7      6     31 
    37     37     28      5      4      3 
    38     38     23      2      3      4 
    39     39     24      3      2     22 
    40     40     27      4      3     25 
    41     41     30      6      5     28 
    42     42     48     16     17     18 
    43     43     35      8      7     33 
    44     44     38     11     10     37 
    45     45     36      9      8      7 
    46     46     45     14     13     12 
    47     47     48     16     15     46 
    48     48     46     15     14     13 
    49     49     46     15     16     17 
    50     50     49     16     15     14 
    51     51     44     14     13     12 
    52     52     26      4      3      2 
    53     53     49     16     15     46 
    54     54     48     16     15     47 
    55     55     28      5      6      7 
    56     56     33      7      6      5 
    57     57     30      6      7      8 
    58     58     51     17     16     49 
    59     59     22      2      1     20 
    60     60     36      9     10     11 
    61     61     40     12     11     10 
    62     62     34      8      7     33 
    63     63     25      3      2     23 
    64     64     32      7      6     30 
    65     65     21      1      2      3 
    66     66     54     18     17     50 
    67     67     27      4      5      6 
    68     68     52     18     17     50 
    69     69     38     11     12     13 
    70     70     41     12     11     10 
    71     71     54     18     17     51 
    72     72     39     11     10      9 
    73     73     30      6      5      4 
    74     74     45     14     13     42 
    75     75     44     14     13     43 
    76     76     37     10      9      8 
    77     77     24      3      4      5 
    78     78     41     12     11     39 
    79     79     48     16     15     14 
    80     80     49     16     15     47 
    81     81     45     14     15     16 
    82     82     47     15     16     17 
    83     83     22      2      1     19 
    84     84     26      4      3     25 
    85     85     27      4      3     24 
    86     86     39     11     12     13 
    87     87     43     13     12     40 
    88     88     42     13     12     41 
    89     89     50     17     16     49 
    90     90     51     17     16     48 
    91     91     31      6      7      8 
    92     92     32      7      6      5 
    93     93     27      4      3      2 
    94     94     29      5      6      7 
    95     95     42     13     12     40 
    96     96     45     14     13     43 
    97     97     53     18     17     16 
    98     98     44     14     13     42 
    99     99     34      8      9     10 
   100    100     50     17     16     15 
   101    101     35      8      7      6 
   102    102     31      6      5     29 
   103    103     43     13     12     11 
   104    104     40     12     11     39 
   105    105     41     12     11     38 
   106    106     40     12     13     14 
   107    107     34      8      7     32 
   108    108     29      5      4     27 
   109    109     24      3      2     23 
   110    110     25      3      2     22 
   111    111     24      3      2      1 
   112    112     33      7      8      9 
   113    113     53     18     17     51 
   114    114     20      1      2      3 
   115    115     37     10      9     36 
   116    116     28      5      4     26 
   117    117     52     18     17     51 
   118    118     53     18     17     50 
   119    119     26      4      5      6 
   120    120     29      5      4      3 
   121    121     39     11     10     37 
   122    122     50     17     16     48 
   123    123     36      9      8     34 
   124    124     23      2      1     20 
   125    125     22      2      1     21 
   126    126     22      2      3      4 
   127    127     37     10     11     12 
   128    128     25      3      2      1 
   129    129     42     13     14     15 
   130    130     35      8      7     32 
   131    131     49     16     17     18 
   132    132     29      5      4     26 
   133    133     28      5      4     27 
   134    134     41     12     13     14 
   135    135     46     15     14     44 
   136    136     31      6      5      4 
   137    137     26      4      3     24 
   138    138     43     13     14     15 
   139    139     36      9      8     35 
   140    140     23      2      1     19 
   141    141     30      6      5     29 
   142    142     31      6      5     28 

Impropers

     1      1      1      2     19     20 
     2      2      1      2     19     21 
     3      3      2      1      3     22 
     4      4      2      1      3     23 
     5      5      3      2      4     24 
     6      6      3     25      2      4 
     7      7      4     26      3      5 
     8      8      4     27      5      3 
     9      9      5      4     28      6 
    10     10      5      4     29      6 
    11     11      6      5     30      7 
    12     12      6      7      5     31 
    13     13      7      8      6     32 
    14     14      7     33      6      8 
    15     15      8      9     34      7 
    16     16      8      9     35      7 
    17     17      9     10     36      8 
    18     18     10      9     11     37 
    19     19     11     10     12     38 
    20     20     11     10     12     39 
    21     21     12     11     13     40 
    22     22     12     41     11     13 
    23     23     13     42     12     14 
    24     24     13     43     12     14 
    25     25     14     44     13     15 
    26     26     14     13     45     15 
    27     27     15     16     46     14 
    28     28     15     16     47     14 
    29     29     16     17     15     48 
    30     30     16     49     17     15 
    31     31     17     50     18     16 
    32     32     17     18     51     16 
    33     33     18     17     52     53 
    34     34     18     17     52     54 

