#Oleate

53 atoms
5 atom types

52 bonds
7 bond types

99 angles
10 angle types

139 dihedrals
11 dihedral types

33 impropers
3 improper types

-4.79579909951683  1.05126769813417  xlo xhi
-1.13515987965275  3.1569372012946  ylo yhi
-1.12628180700396  20.5260229057955  zlo zhi

Masses

1  12.011
2  12.011
3  12.011
4  15.999
5  1.008

Pair Coeffs

1  0.066  3.5
2  0.076  3.55
3  0.07  3.55
4  0.21  2.96
5  0.03  2.5

Bond Coeffs

1  268.0  1.529
2  317.0  1.51
3  549.0  1.34
4  317.0  1.522
5  656.0  1.25
6  340.0  1.09
7  340.0  1.08

Angle Coeffs

1  58.35  112.7
2  63.0  111.1
3  70.0  124.0
4  70.0  117.0
5  37.5  110.7
6  35.0  117.0
7  35.0  120.0
8  35.0  109.5
9  33.0  107.8
10  80.0  126.0

Dihedral Coeffs

1  1.3  -0.2  0.2  0.0
2  0.346  0.405  -0.904  0.0
3  0.0  14.0  0.0  0.0
4  -2.06  -0.313  0.315  0.0
5  0.0  0.0  0.0  0.0
6  0.0  0.0  0.3  0.0
7  0.0  0.0  0.366  0.0
8  0.0  0.0  -0.1  0.0
9  0.0  -8.0  0.0  0.0
10  0.0  0.0  -0.372  0.0
11  0.0  0.0  0.318  0.0

Improper Coeffs

1  10.5  -1.0  2.0
2  0.0  -1.0  2.0
3  2.5  -1.0  2.0

Atoms # full

1  1  1  -0.2092  -2.15440931999868e-15   -1.35698068588245e-15    19.5673167689926 
2  1  1  -0.1575  -0.60501230012437    1.0048056246383    18.6005045983031 
3  1  1  -0.1567  -0.914445997859664    0.358094534854978    17.252602920154 
4  1  1  -0.1574  -1.52089286436839    1.3697777933818    16.2812589648949 
5  1  1  -0.1575  -1.82729918300153    0.718447787966062    14.9329510920236 
6  1  1  -0.1578  -2.43539281895835    1.72970848054591    13.9621984813386 
7  1  1  -0.1549  -2.7401134520169    1.07924207931925    12.6137332809483 
8  1  1  -0.123  -3.40764796672988    2.07715325475963    11.6678756742769 
9  1  2  -0.1849  -3.71263355617858    1.44759921299177    10.3413104446623 
10  1  2  -0.1573  -3.63313412596454    2.10953067086103    9.17779004717086 
11  1  1  -0.1294  -3.93577885550014    1.4841262082673    7.84778389216549 
12  1  1  -0.1541  -2.7299673195057    1.58976960022218    6.91686911497104 
13  1  1  -0.1587  -3.02836833608589    0.953716077609648    5.56056236641594 
14  1  1  -0.1571  -1.82186919018463    1.0627986677548    4.63121946975898 
15  1  1  -0.1612  -2.11201531169569    0.430928345668395    3.27095020423156 
16  1  1  -0.136  -0.898381955276931    0.547687509234472    2.34983763325497 
17  1  1  -0.2333  -1.16996255553021   -0.0770613509756593    0.986923920493888 
18  1  3   0.4286   0    0    0 
19  1  4  -0.6309   1.05126769813417    0.563318028413969    0.410250560905766 
20  1  4  -0.6309  -0.245468762613462   -0.52202591869839   -1.12628180700396 
21  1  5   0.0698   0.216088760097271    0.48075479188047    20.5260229057955 
22  1  5   0.0698   0.934528404452066   -0.408688068576011    19.170907558232 
23  1  5   0.0698  -0.690534632966876   -0.829776262653789    19.7502045067161 
24  1  5   0.0767   0.0943285781393537    1.83769396092529    18.4625057683573 
25  1  5   0.0767  -1.52266181802617    1.41730088282705    19.0359012698181 
26  1  5   0.0789  -1.61269913284385   -0.476166117819453    17.3963557019844 
27  1  5   0.0789   0.00479655391776262   -0.056941256257272    16.8230020519082 
28  1  5   0.0774  -0.824764386453015    2.20489588530604    16.13658253255 
29  1  5   0.0774  -2.44218901901876    1.78434824364848    16.7085169560339 
30  1  5   0.0793  -2.52377522390829   -0.11594782908912    15.078595888985 
31  1  5   0.0793  -0.90618293407914    0.303865163136555    14.5057930294043 
32  1  5   0.0772  -1.73882749221671    2.56480807224493    13.8188016273792 
33  1  5   0.0772  -3.35598650637887    2.13955361596779    14.391966759196 
34  1  5   0.0814  -3.40214697120254    0.217134206710967    12.767193888146 
35  1  5   0.0814  -1.81258141148658    0.697362050190103    12.1678105799765 
36  1  5   0.0816  -2.75609749032002    2.95025119731879    11.5386858144232 
37  1  5   0.0816  -4.34730592396234    2.42500671957038    12.112749821569 
38  1  5   0.1192  -4.01253226959705    0.401322297377086    10.344017775776 
39  1  5   0.1165  -3.33765329762106    3.1569372012946    9.16958828598435 
40  1  5   0.0823  -4.79579909951683    2.00062576573433    7.40561371008868 
41  1  5   0.0823  -4.21770741889074    0.430895850585686    7.96879856773165 
42  1  5   0.0794  -1.86305257251499    1.09497371830352    7.37256489856616 
43  1  5   0.0794  -2.46179360602606    2.64507005642812    6.77674204039201 
44  1  5   0.0735  -3.89341031838853    1.45018228145097    5.10385842752631 
45  1  5   0.0735  -3.29370942065726   -0.101200003267038    5.69931631715703 
46  1  5   0.0759  -0.9584834652955    0.567825175688914    5.09208341140529 
47  1  5   0.0759  -1.55738006888281    2.11909715368309    4.49757974572978 
48  1  5   0.0652  -2.97504382012464    0.927315471352617    2.81133190956319 
49  1  5   0.0652  -2.3751796167472   -0.625560126723915    3.40513560861264 
50  1  5   0.0794  -0.0366519562514343    0.0544076235208423    2.81821438858114 
51  1  5   0.0794  -0.635108315555365    1.60518900582432    2.22606970591515 
52  1  5   0.0589  -2.03180213124955    0.418823537077172    0.522895286113708 
53  1  5   0.0589  -1.42946910326903   -1.13515987965275    1.11557486643703 

Bonds

1  1  2  1
2  1  3  2
3  1  4  3
4  1  5  4
5  1  6  5
6  1  7  6
7  1  8  7
8  2  9  8
9  3  10  9
10  2  11  10
11  1  12  11
12  1  13  12
13  1  14  13
14  1  15  14
15  1  16  15
16  1  17  16
17  4  18  17
18  5  19  18
19  5  20  18
20  6  21  1
21  6  22  1
22  6  23  1
23  6  24  2
24  6  25  2
25  6  26  3
26  6  27  3
27  6  28  4
28  6  29  4
29  6  30  5
30  6  31  5
31  6  32  6
32  6  33  6
33  6  34  7
34  6  35  7
35  6  36  8
36  6  37  8
37  7  38  9
38  7  39  10
39  6  40  11
40  6  41  11
41  6  42  12
42  6  43  12
43  6  44  13
44  6  45  13
45  6  46  14
46  6  47  14
47  6  48  15
48  6  49  15
49  6  50  16
50  6  51  16
51  6  52  17
52  6  53  17

Angles

1  1  1  2  3
2  1  2  3  4
3  1  3  4  5
4  1  4  5  6
5  1  5  6  7
6  1  6  7  8
7  2  7  8  9
8  3  8  9  10
9  3  9  10  11
10  2  10  11  12
11  1  11  12  13
12  1  12  13  14
13  1  13  14  15
14  1  14  15  16
15  1  15  16  17
16  2  16  17  18
17  4  17  18  19
18  4  17  18  20
19  5  2  1  21
20  5  2  1  22
21  5  2  1  23
22  5  1  2  24
23  5  1  2  25
24  5  2  3  26
25  5  2  3  27
26  5  3  4  28
27  5  3  4  29
28  5  4  5  30
29  5  4  5  31
30  5  5  6  32
31  5  5  6  33
32  5  6  7  34
33  5  6  7  35
34  5  7  8  36
35  5  7  8  37
36  6  8  9  38
37  7  9  10  39
38  8  10  11  40
39  8  10  11  41
40  5  11  12  42
41  5  11  12  43
42  5  12  13  44
43  5  12  13  45
44  5  13  14  46
45  5  13  14  47
46  5  14  15  48
47  5  14  15  49
48  5  15  16  50
49  5  15  16  51
50  5  16  17  52
51  5  16  17  53
52  5  15  14  47
53  8  9  8  36
54  5  16  15  49
55  9  46  14  47
56  5  17  16  50
57  5  7  6  32
58  9  21  1  23
59  5  3  2  25
60  5  14  13  45
61  5  5  4  28
62  9  50  16  51
63  8  9  8  37
64  5  15  14  46
65  9  48  15  49
66  5  13  12  42
67  5  6  5  31
68  9  42  12  43
69  9  44  13  45
70  9  32  6  33
71  9  36  8  37
72  5  8  7  35
73  5  6  5  30
74  9  24  2  25
75  9  21  1  22
76  8  18  17  52
77  10  19  18  20
78  5  4  3  27
79  5  13  12  43
80  5  4  3  26
81  5  8  7  34
82  8  18  17  53
83  9  34  7  35
84  5  5  4  29
85  9  52  17  53
86  5  16  15  48
87  9  26  3  27
88  6  11  10  39
89  7  10  9  38
90  9  22  1  23
91  9  28  4  29
92  5  12  11  40
93  9  40  11  41
94  5  3  2  24
95  5  7  6  33
96  5  17  16  51
97  9  30  5  31
98  5  12  11  41
99  5  14  13  44

Dihedrals

1  1  4  3  2  1
2  1  5  4  3  2
3  1  6  5  4  3
4  1  7  6  5  4
5  1  8  7  6  5
6  1  9  8  7  6
7  2  10  9  8  7
8  3  11  10  9  8
9  2  12  11  10  9
10  1  13  12  11  10
11  1  14  13  12  11
12  1  15  14  13  12
13  1  16  15  14  13
14  1  17  16  15  14
15  4  18  17  16  15
16  5  19  18  17  16
17  6  21  1  2  3
18  6  27  3  4  5
19  6  50  16  15  48
20  6  28  4  3  2
21  6  47  14  13  45
22  7  35  7  8  9
23  6  48  15  14  47
24  6  49  15  14  46
25  8  51  16  17  18
26  6  29  4  3  26
27  6  28  4  3  27
28  9  38  9  8  7
29  6  53  17  16  51
30  6  23  1  2  3
31  6  48  15  16  17
32  6  51  16  15  14
33  6  45  13  14  15
34  6  53  17  16  15
35  8  50  16  17  18
36  3  38  9  10  11
37  6  45  13  12  42
38  6  26  3  2  1
39  6  46  14  13  45
40  6  47  14  13  44
41  6  35  7  6  5
42  6  32  6  7  8
43  6  32  6  5  30
44  6  43  12  11  40
45  6  42  12  11  41
46  6  31  5  4  29
47  6  45  13  12  11
48  6  24  2  1  22
49  6  30  5  4  29
50  6  31  5  4  28
51  6  25  2  1  23
52  10  36  8  9  10
53  6  30  5  4  3
54  6  26  3  2  25
55  6  27  3  2  24
56  6  37  8  7  6
57  7  34  7  8  9
58  6  22  1  2  3
59  6  37  8  7  35
60  6  40  11  12  13
61  6  44  13  12  43
62  7  43  12  11  10
63  5  20  18  17  16
64  3  39  10  9  8
65  6  25  2  1  21
66  11  40  11  10  39
67  6  29  4  3  2
68  6  49  15  16  17
69  6  47  14  13  12
70  6  44  13  14  15
71  6  29  4  5  6
72  6  52  17  16  15
73  6  36  8  7  35
74  6  37  8  7  34
75  6  35  7  6  33
76  6  45  13  12  43
77  6  48  15  14  46
78  6  48  15  14  13
79  6  33  6  5  30
80  6  42  12  11  40
81  6  27  3  2  1
82  6  24  2  3  4
83  6  31  5  4  3
84  6  47  14  15  16
85  6  28  4  5  6
86  6  33  6  5  4
87  6  30  5  6  7
88  11  41  11  10  39
89  6  24  2  1  21
90  6  42  12  13  14
91  6  34  7  6  5
92  6  34  7  6  32
93  6  32  6  5  4
94  6  49  15  14  13
95  5  53  17  18  20
96  6  33  6  5  31
97  6  43  12  11  41
98  6  50  16  15  14
99  6  31  5  6  7
100  3  39  10  9  38
101  6  26  3  2  24
102  7  42  12  11  10
103  6  53  17  16  50
104  6  51  16  15  49
105  6  36  8  7  6
106  11  38  9  8  37
107  6  50  16  15  49
108  6  51  16  15  48
109  6  24  2  1  23
110  6  25  2  1  22
111  6  49  15  14  47
112  6  43  12  13  14
113  6  35  7  6  32
114  6  34  7  6  33
115  6  26  3  4  5
116  5  52  17  18  19
117  9  39  10  11  12
118  6  29  4  3  27
119  6  36  8  7  34
120  6  44  13  12  42
121  6  30  5  4  28
122  10  40  11  10  9
123  6  25  2  3  4
124  6  33  6  7  8
125  6  32  6  5  31
126  6  28  4  3  26
127  6  44  13  12  11
128  6  52  17  16  50
129  6  27  3  2  25
130  11  38  9  8  36
131  10  37  8  9  10
132  6  46  14  13  12
133  6  46  14  15  16
134  6  46  14  13  44
135  10  41  11  10  9
136  6  41  11  12  13
137  6  52  17  16  51
138  5  53  17  18  19
139  5  52  17  18  20

Impropers

1  1  18  17  19  20
2  2  1  2  21  22
3  2  1  2  21  23
4  2  2  1  3  24
5  2  2  25  3  1
6  2  3  26  4  2
7  2  3  2  27  4
8  2  4  3  28  5
9  2  4  5  3  29
10  2  5  4  30  6
11  2  5  4  6  31
12  2  6  5  7  32
13  2  6  33  5  7
14  2  7  34  6  8
15  2  7  35  6  8
16  2  8  9  36  7
17  2  8  9  37  7
18  3  9  10  38  8
19  3  10  9  11  39
20  2  11  10  12  40
21  2  11  41  10  12
22  2  12  42  11  13
23  2  12  43  13  11
24  2  13  12  44  14
25  2  13  12  45  14
26  2  14  13  46  15
27  2  14  15  13  47
28  2  15  16  14  48
29  2  15  49  14  16
30  2  16  17  50  15
31  2  16  17  51  15
32  2  17  18  52  16
33  2  17  18  53  16
