#C18_usat

54 atoms
3 atom types

53 bonds
5 bond types

102 angles
8 angle types

142 dihedrals
8 dihedral types

34 impropers
2 improper types

-1.20390343766789  2.17589264991736  xlo xhi
-1.01705282562776  5.17166797122172  ylo yhi
0.0138126636556897  21.4593262499869  zlo zhi

Masses

1  12.011
2  12.011
3  1.008

Pair Coeffs

1  0.066  3.5
2  0.076  3.55
3  0.03  2.5

Bond Coeffs

1  268.0  1.529
2  317.0  1.51
3  549.0  1.34
4  340.0  1.09
5  340.0  1.08

Angle Coeffs

1  58.35  112.7
2  63.0  111.1
3  70.0  124.0
4  37.5  110.7
5  35.0  117.0
6  35.0  120.0
7  35.0  109.5
8  33.0  107.8

Dihedral Coeffs

1  1.3  -0.2  0.2  0.0
2  0.346  0.405  -0.904  0.0
3  0.0  14.0  0.0  0.0
4  0.0  0.0  0.3  0.0
5  0.0  0.0  -0.372  0.0
6  0.0  0.0  0.366  0.0
7  0.0  0.0  0.318  0.0
8  0.0  -8.0  0.0  0.0

Improper Coeffs

1  0.0  -1.0  2.0
2  2.5  -1.0  2.0

Atoms # full

1  1  1  -0.2389   0.485886974206425    0.00391118780416155    0.980703970526521 
2  1  1  -0.1794  -0.140741881167523    1.03029887475081    1.91036229146871 
3  1  1  -0.1788   0.556778767360348    1.04473731262159    3.26873999033936 
4  1  1  -0.1795  -0.0719993822484951    2.07777467367522    4.20268810947758 
5  1  1  -0.1788   0.630307519555579    2.08894833482797    5.55808635998361 
6  1  1  -0.1804   0.00203056309670452    3.12296915026468    6.48965151397252 
7  1  1  -0.1748   0.704722737100205    3.13621133797726    7.84466071023608 
8  1  1  -0.1435   0.0750496432255955    4.17298223757708    8.7738835923765 
9  1  2  -0.1963   0.769128831309879    4.17905456883536    10.1032079831711 
10  1  2  -0.1914   0.140361935512689    3.95615976404349    11.2661868739711 
11  1  1  -0.1444   0.839446146966473    3.96171925217042    12.5929110276623 
12  1  1  -0.1768   0.240208381379597    2.92210121665229    13.5411642254001 
13  1  1  -0.18   0.958275552567126    2.93777733412511    14.8907695667883 
14  1  1  -0.1789   0.322341934156906    1.94726056221983    15.8614486245361 
15  1  1  -0.1794   1.0395550278558    1.96528837834587    17.2095169021365 
16  1  1  -0.1787   0.402656476848695    0.975770077046378    18.1833482228068 
17  1  1  -0.1792   1.11952371463236    0.989844161897007    19.5322784706432 
18  1  1  -0.2389   0.485886974206463    0.00391118780415192    20.4994449866986 
19  1  3   0.0808  -0.0269430029593296    0.00679946026106346    0.0138126636556897 
20  1  3   0.0808   0.411635888157844   -1.0031841422637    1.40324886089453 
21  1  3   0.0808   1.54305800799891    0.228743889192462    0.807401975741233 
22  1  3   0.0883  -1.20390343766789    0.797990024238726    2.04046518172664 
23  1  3   0.0883  -0.0761294285357078    2.02209031496591    1.44753150156709 
24  1  3   0.0895   1.62134341073796    1.27240533314859    3.1332614750699 
25  1  3   0.0895   0.492605944465834    0.0495891761050985    3.72576300823836 
26  1  3   0.0893  -1.13610355948033    1.85083848254843    4.33930403261477 
27  1  3   0.0893  -0.00742871842791437    3.07318239243339    3.74564666178335 
28  1  3   0.0901   1.69408770319622    2.31643349647964    5.42064596154923 
29  1  3   0.0901   0.564951561567058    1.09373233166623    6.01438682306269 
30  1  3   0.0894  -1.06187658639067    2.89427273768886    6.628343611601 
31  1  3   0.0894   0.0645784561188997    4.11768459939536    6.03201093268713 
32  1  3   0.0924   1.77000225094657    3.3602465825959    7.70386475202734 
33  1  3   0.0924   0.641875937782987    2.13996028229643    8.30052518129124 
34  1  3   0.0954  -0.994246901374673    3.95937427904953    8.89391963804455 
35  1  3   0.0954   0.157272769872728    5.17166797122172    8.33002658909838 
36  1  3   0.1353   1.8392438493929    4.37871063726198    10.0939577229801 
37  1  3   0.1364  -0.930212361583027    3.76046736626237    11.2674814583389 
38  1  3   0.0974   0.737958656860354    4.95853114159506    13.0360948850552 
39  1  3   0.0974   1.91035523973176    3.76163783750667    12.4630822961012 
40  1  3   0.0918   0.309022103452644    1.92149219286515    13.0948641759152 
41  1  3   0.0918  -0.825879756150828    3.13491859143925    13.6928815546861 
42  1  3   0.0896   0.917768616515627    3.94805325162323    15.316046697087 
43  1  3   0.0896   2.01664673027467    2.68735455767729    14.7443036846379 
44  1  3   0.0899   0.36129814759652    0.937332150396206    15.434742578849 
45  1  3   0.0899  -0.736289136465177    2.19899021942897    16.0046614591387 
46  1  3   0.0894   0.999154923308638    2.97601402415822    17.6327345102883 
47  1  3   0.0894   2.09744362644477    1.71261644697642    17.0652089170023 
48  1  3   0.0896   0.440115999444408   -0.0344996623791074    17.7560101866246 
49  1  3   0.0896  -0.654838467463762    1.22892360302484    18.3241198251926 
50  1  3   0.0885   1.08051350531625    1.99617932737237    19.9645502476502 
51  1  3   0.0885   2.17589264991736    0.732322580165054    19.3939354259784 
52  1  3   0.0808  -0.564997584706777    0.251757288611497    20.6783270790174 
53  1  3   0.0808   1.01021004594273    0.0262364388250148    21.4593262499869 
54  1  3   0.0808   0.535282373243978   -1.01705282562776    20.1050393032572 

Bonds

1  1  2  1
2  1  3  2
3  1  4  3
4  1  5  4
5  1  6  5
6  1  7  6
7  1  8  7
8  2  9  8
9  3  10  9
10  2  11  10
11  1  12  11
12  1  13  12
13  1  14  13
14  1  15  14
15  1  16  15
16  1  17  16
17  1  18  17
18  4  19  1
19  4  20  1
20  4  21  1
21  4  22  2
22  4  23  2
23  4  24  3
24  4  25  3
25  4  26  4
26  4  27  4
27  4  28  5
28  4  29  5
29  4  30  6
30  4  31  6
31  4  32  7
32  4  33  7
33  4  34  8
34  4  35  8
35  5  36  9
36  5  37  10
37  4  38  11
38  4  39  11
39  4  40  12
40  4  41  12
41  4  42  13
42  4  43  13
43  4  44  14
44  4  45  14
45  4  46  15
46  4  47  15
47  4  48  16
48  4  49  16
49  4  50  17
50  4  51  17
51  4  52  18
52  4  53  18
53  4  54  18

Angles

1  1  1  2  3
2  1  2  3  4
3  1  3  4  5
4  1  4  5  6
5  1  5  6  7
6  1  6  7  8
7  2  7  8  9
8  3  8  9  10
9  3  9  10  11
10  2  10  11  12
11  1  11  12  13
12  1  12  13  14
13  1  13  14  15
14  1  14  15  16
15  1  15  16  17
16  1  16  17  18
17  4  2  1  19
18  4  2  1  20
19  4  2  1  21
20  4  1  2  22
21  4  1  2  23
22  4  2  3  24
23  4  2  3  25
24  4  3  4  26
25  4  3  4  27
26  4  4  5  28
27  4  4  5  29
28  4  5  6  30
29  4  5  6  31
30  4  6  7  32
31  4  6  7  33
32  4  7  8  34
33  4  7  8  35
34  5  8  9  36
35  6  9  10  37
36  7  10  11  38
37  7  10  11  39
38  4  11  12  40
39  4  11  12  41
40  4  12  13  42
41  4  12  13  43
42  4  13  14  44
43  4  13  14  45
44  4  14  15  46
45  4  14  15  47
46  4  15  16  48
47  4  15  16  49
48  4  16  17  50
49  4  16  17  51
50  4  17  18  52
51  4  17  18  53
52  4  17  18  54
53  8  42  13  43
54  8  40  12  41
55  8  19  1  21
56  4  4  3  24
57  8  38  11  39
58  4  12  11  38
59  4  16  15  46
60  8  20  1  21
61  4  5  4  27
62  8  44  14  45
63  4  7  6  31
64  8  24  3  25
65  8  28  5  29
66  8  34  8  35
67  4  5  4  26
68  4  14  13  42
69  4  18  17  51
70  7  9  8  34
71  4  12  11  39
72  4  8  7  32
73  4  8  7  33
74  8  46  15  47
75  4  18  17  50
76  4  14  13  43
77  8  32  7  33
78  4  16  15  47
79  4  17  16  48
80  4  4  3  25
81  4  15  14  44
82  8  50  17  51
83  4  6  5  28
84  8  22  2  23
85  8  26  4  27
86  4  15  14  45
87  4  13  12  40
88  4  13  12  41
89  8  53  18  54
90  8  52  18  53
91  4  7  6  30
92  8  30  6  31
93  4  3  2  22
94  4  3  2  23
95  7  9  8  35
96  8  48  16  49
97  4  17  16  49
98  5  11  10  37
99  8  52  18  54
100  6  10  9  36
101  8  19  1  20
102  4  6  5  29

Dihedrals

1  1  4  3  2  1
2  1  5  4  3  2
3  1  6  5  4  3
4  1  7  6  5  4
5  1  8  7  6  5
6  1  9  8  7  6
7  2  10  9  8  7
8  3  11  10  9  8
9  2  12  11  10  9
10  1  13  12  11  10
11  1  14  13  12  11
12  1  15  14  13  12
13  1  16  15  14  13
14  1  17  16  15  14
15  1  18  17  16  15
16  4  19  1  2  3
17  4  52  18  17  16
18  4  34  8  7  6
19  5  38  11  10  9
20  4  54  18  17  16
21  4  25  3  4  5
22  4  43  13  12  41
23  4  47  15  14  13
24  4  44  14  15  16
25  4  47  15  14  44
26  4  46  15  14  45
27  5  35  8  9  10
28  4  51  17  16  15
29  4  42  13  12  11
30  4  23  2  1  21
31  4  40  12  11  38
32  4  47  15  14  45
33  4  33  7  6  30
34  4  32  7  6  31
35  6  32  7  8  9
36  4  33  7  6  31
37  4  28  5  4  3
38  4  23  2  3  4
39  4  24  3  2  22
40  4  27  4  3  25
41  4  30  6  5  28
42  4  48  16  17  18
43  4  35  8  7  33
44  7  38  11  10  37
45  8  36  9  8  7
46  4  45  14  13  12
47  4  48  16  15  46
48  4  46  15  14  13
49  4  46  15  16  17
50  4  49  16  15  14
51  4  44  14  13  12
52  4  26  4  3  2
53  4  49  16  15  46
54  4  48  16  15  47
55  4  28  5  6  7
56  4  33  7  6  5
57  4  30  6  7  8
58  4  51  17  16  49
59  4  22  2  1  20
60  3  36  9  10  11
61  6  40  12  11  10
62  4  34  8  7  33
63  4  25  3  2  23
64  4  32  7  6  30
65  4  21  1  2  3
66  4  54  18  17  50
67  4  27  4  5  6
68  4  52  18  17  50
69  4  38  11  12  13
70  6  41  12  11  10
71  4  54  18  17  51
72  5  39  11  10  9
73  4  30  6  5  4
74  4  45  14  13  42
75  4  44  14  13  43
76  3  37  10  9  8
77  4  24  3  4  5
78  4  41  12  11  39
79  4  48  16  15  14
80  4  49  16  15  47
81  4  45  14  15  16
82  4  47  15  16  17
83  4  22  2  1  19
84  4  26  4  3  25
85  4  27  4  3  24
86  4  39  11  12  13
87  4  43  13  12  40
88  4  42  13  12  41
89  4  50  17  16  49
90  4  51  17  16  48
91  4  31  6  7  8
92  4  32  7  6  5
93  4  27  4  3  2
94  4  29  5  6  7
95  4  42  13  12  40
96  4  45  14  13  43
97  4  53  18  17  16
98  4  44  14  13  42
99  5  34  8  9  10
100  4  50  17  16  15
101  4  35  8  7  6
102  4  31  6  5  29
103  4  43  13  12  11
104  4  40  12  11  39
105  4  41  12  11  38
106  4  40  12  13  14
107  4  34  8  7  32
108  4  29  5  4  27
109  4  24  3  2  23
110  4  25  3  2  22
111  4  24  3  2  1
112  6  33  7  8  9
113  4  53  18  17  51
114  4  20  1  2  3
115  3  37  10  9  36
116  4  28  5  4  26
117  4  52  18  17  51
118  4  53  18  17  50
119  4  26  4  5  6
120  4  29  5  4  3
121  7  39  11  10  37
122  4  50  17  16  48
123  7  36  9  8  34
124  4  23  2  1  20
125  4  22  2  1  21
126  4  22  2  3  4
127  8  37  10  11  12
128  4  25  3  2  1
129  4  42  13  14  15
130  4  35  8  7  32
131  4  49  16  17  18
132  4  29  5  4  26
133  4  28  5  4  27
134  4  41  12  13  14
135  4  46  15  14  44
136  4  31  6  5  4
137  4  26  4  3  24
138  4  43  13  14  15
139  7  36  9  8  35
140  4  23  2  1  19
141  4  30  6  5  29
142  4  31  6  5  28

Impropers

1  1  1  2  19  20
2  1  1  2  19  21
3  1  2  1  3  22
4  1  2  1  3  23
5  1  3  2  4  24
6  1  3  25  2  4
7  1  4  26  3  5
8  1  4  27  5  3
9  1  5  4  28  6
10  1  5  4  29  6
11  1  6  5  30  7
12  1  6  7  5  31
13  1  7  8  6  32
14  1  7  33  6  8
15  1  8  9  34  7
16  1  8  9  35  7
17  2  9  10  36  8
18  2  10  9  11  37
19  1  11  10  12  38
20  1  11  10  12  39
21  1  12  11  13  40
22  1  12  41  11  13
23  1  13  42  12  14
24  1  13  43  12  14
25  1  14  44  13  15
26  1  14  13  45  15
27  1  15  16  46  14
28  1  15  16  47  14
29  1  16  17  15  48
30  1  16  49  17  15
31  1  17  50  18  16
32  1  17  18  51  16
33  1  18  17  52  53
34  1  18  17  52  54
