#OleicAcid

54 atoms
7 atom types

53 bonds
9 bond types

100 angles
12 angle types

141 dihedrals
14 dihedral types

33 impropers
3 improper types

-3.13847357826914  1.17896186625621  xlo xhi
-0.88826468613923  4.53923991593451  ylo yhi
-1.30218286418349  20.4459181196656  zlo zhi

Masses

1  12.011
2  12.011
3  12.011
4  15.999
5  15.999
6  1.008
7  1.008

Pair Coeffs

1  0.066  3.5
2  0.076  3.55
3  0.07  3.55
4  0.17  3.12
5  0.21  2.96
6  0.03  2.5
7  0.0  2.5  #sigma=0  from  ligpargen,  setting  =  2.5  for  lammps

Bond Coeffs

1  268.0  1.529
2  317.0  1.51
3  549.0  1.34
4  317.0  1.522
5  450.0  1.364
6  570.0  1.229
7  340.0  1.09
8  340.0  1.08
9  553.0  0.945

Angle Coeffs

1  58.35  112.7
2  63.0  111.1
3  70.0  124.0
4  70.0  108.0
5  80.0  120.4
6  37.5  110.7
7  35.0  117.0
8  35.0  120.0
9  35.0  109.5
10  35.0  113.0
11  33.0  107.8
12  80.0  121.0

Dihedral Coeffs

1  1.3  -0.2  0.2  0.0
2  0.346  0.405  -0.904  0.0
3  0.0  14.0  0.0  0.0
4  -2.06  -0.313  0.315  0.0
5  1.0  0.546  0.45  0.0
6  0.0  0.0  0.3  0.0
7  1.5  5.5  0.0  0.0
8  0.0  0.0  0.366  0.0
9  0.0  0.0  -0.1  0.0
10  0.0  -8.0  0.0  0.0
11  0.0  0.0  -0.372  0.0
12  0.0  0.0  0.0  0.0
13  0.0  0.0  0.318  0.0
14  0.0  5.5  0.0  0.0

Improper Coeffs

1  10.5  -1.0  2.0
2  0.0  -1.0  2.0
3  2.5  -1.0  2.0

Atoms # full

1  1  1  -0.2388  -5.29828557834805e-14   -1.232434925955e-14    19.4875500711737 
2  1  1  -0.1796   0.119437431772406    1.16532466859066    18.5205370843603 
3  1  1  -0.1786  -0.517987659780493    0.832214613267149    17.1732937707005 
4  1  1  -0.1793  -0.396346620462348    2.00302974173206    16.2006028472766 
5  1  1  -0.1791  -1.03383207164655    1.66271076518524    14.855660492441 
6  1  1  -0.1803  -0.913765607975355    2.83417275921945    13.8835546130046 
7  1  1  -0.1768  -1.55224284420751    2.49650786215116    12.5385464969319 
8  1  1  -0.1448  -1.48676213710001    3.69476123430546    11.5919842984909 
9  1  2  -0.1897  -2.11335687393479    3.37256379092466    10.2686540924766 
10  1  2  -0.198  -1.66175477793646    3.86085875821563    9.10485520881662 
11  1  1  -0.1428  -2.28235540142125    3.54115785136222    7.77899059744508 
12  1  1  -0.1749  -1.25500389724221    2.90171811768229    6.84784729034762 
13  1  1  -0.18  -1.87763672643271    2.57128478086023    5.49309011268408 
14  1  1  -0.1781  -0.847665404184115    1.93334501885322    4.56407796448799 
15  1  1  -0.1801  -1.45990314890975    1.59988458076443    3.20538599624688 
16  1  1  -0.1701  -0.422331433575986    0.964638232226294    2.28212917157224 
17  1  1  -0.2606  -1.02083548820064    0.627506882459231    0.919138928833099 
18  1  3   0.5096   0    0    0 
19  1  4  -0.5595  -0.520050380479897   -0.301534919990976   -1.21301324650177 
20  1  5  -0.4448   1.16654287088617   -0.222227158019342    0.283122459588258 
21  1  6   0.0809   0.462398803246457    0.25516032702186    20.4459181196656 
22  1  6   0.0809   0.502223317854179   -0.88826468613923    19.0917720485884 
23  1  6   0.0809  -1.05005242710684   -0.248959285179659    19.6704597536674 
24  1  6   0.0884   1.17896186625621    1.41150046979327    18.3809966743207 
25  1  6   0.0884  -0.366855814511009    2.04719836061201    18.9545638835787 
26  1  6   0.0896  -1.57648070493294    0.583292647348829    17.3190771299952 
27  1  6   0.0896  -0.0318766677718644   -0.0534484308075435    16.7456737174888 
28  1  6   0.0895   0.661695904556537    2.252703377142    16.0540988461952 
29  1  6   0.0895  -0.884462593000281    2.88848927989343    16.6261592051569 
30  1  6   0.0899  -2.0916041265719    1.41299151322105    15.0021429283077 
31  1  6   0.0899  -0.546515152655946    0.778268739104136    14.4280899889365 
32  1  6   0.0898   0.143414667224739    3.08579228162565    13.736147423655 
33  1  6   0.0898  -1.40316393328963    3.71693940783705    14.3119907134536 
34  1  6   0.0919  -2.59917663354755    2.20643884153813    12.695863237995 
35  1  6   0.0919  -1.04283350761889    1.63320344888511    12.0920526108241 
36  1  6   0.0981  -0.440687261657209    3.99698633223089    11.4586353744184 
37  1  6   0.0981  -2.02479550682061    4.53923991593451    12.0373893983058 
38  1  6   0.1363  -2.97601951132321    2.70909562389638    10.2752196384705 
39  1  6   0.136  -0.800881424340119    4.52681376087313    9.09792385950864 
40  1  6   0.0951  -2.66301340019729    4.4697111131433    7.33668548103386 
41  1  6   0.0951  -3.13847357826914    2.86791233202532    7.90338895982753 
42  1  6   0.0939  -0.858326361347001    1.98557593864896    7.30394567886941 
43  1  6   0.0939  -0.406774253128803    3.58381191009301    6.70643356681978 
44  1  6   0.0892  -2.27276114834298    3.48679618870414    5.03642342436783 
45  1  6   0.0892  -2.72248876606925    1.88621902352705    5.63448119780441 
46  1  6   0.0943  -0.453876744923346    1.0191704588528    5.02533230754142 
47  1  6   0.0943  -0.00198033596206874    2.61841483343988    4.42907792364183 
48  1  6   0.0881  -1.85365687603427    2.51459060410582    2.74477642172794 
49  1  6   0.0881  -2.3053657758226    0.914556000066305    3.34010167822906 
50  1  6   0.1112  -0.0262620610682634    0.0536239566282689    2.7474735940358 
51  1  6   0.1112   0.424926296096868    1.65004139322921    2.15400834696981 
52  1  6   0.1211  -1.39428655244349    1.54156121014191    0.44454346239831 
53  1  6   0.1211  -1.85003235313936   -0.0780316969982873    1.04407555986203 
54  1  7   0.451  -1.46302763106315   -0.0690180858371062   -1.30218286418349 

Bonds

1  1  2  1
2  1  3  2
3  1  4  3
4  1  5  4
5  1  6  5
6  1  7  6
7  1  8  7
8  2  9  8
9  3  10  9
10  2  11  10
11  1  12  11
12  1  13  12
13  1  14  13
14  1  15  14
15  1  16  15
16  1  17  16
17  4  18  17
18  5  19  18
19  6  20  18
20  7  21  1
21  7  22  1
22  7  23  1
23  7  24  2
24  7  25  2
25  7  26  3
26  7  27  3
27  7  28  4
28  7  29  4
29  7  30  5
30  7  31  5
31  7  32  6
32  7  33  6
33  7  34  7
34  7  35  7
35  7  36  8
36  7  37  8
37  8  38  9
38  8  39  10
39  7  40  11
40  7  41  11
41  7  42  12
42  7  43  12
43  7  44  13
44  7  45  13
45  7  46  14
46  7  47  14
47  7  48  15
48  7  49  15
49  7  50  16
50  7  51  16
51  7  52  17
52  7  53  17
53  9  54  19

Angles

1  1  1  2  3
2  1  2  3  4
3  1  3  4  5
4  1  4  5  6
5  1  5  6  7
6  1  6  7  8
7  2  7  8  9
8  3  8  9  10
9  3  9  10  11
10  2  10  11  12
11  1  11  12  13
12  1  12  13  14
13  1  13  14  15
14  1  14  15  16
15  1  15  16  17
16  2  16  17  18
17  4  17  18  19
18  5  17  18  20
19  6  2  1  21
20  6  2  1  22
21  6  2  1  23
22  6  1  2  24
23  6  1  2  25
24  6  2  3  26
25  6  2  3  27
26  6  3  4  28
27  6  3  4  29
28  6  4  5  30
29  6  4  5  31
30  6  5  6  32
31  6  5  6  33
32  6  6  7  34
33  6  6  7  35
34  6  7  8  36
35  6  7  8  37
36  7  8  9  38
37  8  9  10  39
38  9  10  11  40
39  9  10  11  41
40  6  11  12  42
41  6  11  12  43
42  6  12  13  44
43  6  12  13  45
44  6  13  14  46
45  6  13  14  47
46  6  14  15  48
47  6  14  15  49
48  6  15  16  50
49  6  15  16  51
50  6  16  17  52
51  6  16  17  53
52  10  18  19  54
53  6  15  14  47
54  9  9  8  36
55  6  16  15  49
56  11  46  14  47
57  6  17  16  50
58  6  7  6  32
59  11  21  1  23
60  6  3  2  25
61  6  14  13  45
62  6  5  4  28
63  11  50  16  51
64  9  9  8  37
65  6  15  14  46
66  11  48  15  49
67  6  13  12  42
68  6  6  5  31
69  11  42  12  43
70  11  44  13  45
71  11  32  6  33
72  11  36  8  37
73  6  8  7  35
74  6  6  5  30
75  11  24  2  25
76  11  21  1  22
77  9  18  17  52
78  12  19  18  20
79  6  4  3  27
80  6  13  12  43
81  6  4  3  26
82  6  8  7  34
83  9  18  17  53
84  11  34  7  35
85  6  5  4  29
86  11  52  17  53
87  6  16  15  48
88  11  26  3  27
89  7  11  10  39
90  8  10  9  38
91  11  22  1  23
92  11  28  4  29
93  6  12  11  40
94  11  40  11  41
95  6  3  2  24
96  6  7  6  33
97  6  17  16  51
98  11  30  5  31
99  6  12  11  41
100  6  14  13  44

Dihedrals

1  1  4  3  2  1
2  1  5  4  3  2
3  1  6  5  4  3
4  1  7  6  5  4
5  1  8  7  6  5
6  1  9  8  7  6
7  2  10  9  8  7
8  3  11  10  9  8
9  2  12  11  10  9
10  1  13  12  11  10
11  1  14  13  12  11
12  1  15  14  13  12
13  1  16  15  14  13
14  1  17  16  15  14
15  4  18  17  16  15
16  5  19  18  17  16
17  6  21  1  2  3
18  7  54  19  18  17
19  6  27  3  4  5
20  6  50  16  15  48
21  6  28  4  3  2
22  6  47  14  13  45
23  8  35  7  8  9
24  6  48  15  14  47
25  6  49  15  14  46
26  9  51  16  17  18
27  6  29  4  3  26
28  6  28  4  3  27
29  10  38  9  8  7
30  6  53  17  16  51
31  6  23  1  2  3
32  6  48  15  16  17
33  6  51  16  15  14
34  6  45  13  14  15
35  6  53  17  16  15
36  9  50  16  17  18
37  3  38  9  10  11
38  6  45  13  12  42
39  6  26  3  2  1
40  6  46  14  13  45
41  6  47  14  13  44
42  6  35  7  6  5
43  6  32  6  7  8
44  6  32  6  5  30
45  6  43  12  11  40
46  6  42  12  11  41
47  6  31  5  4  29
48  6  45  13  12  11
49  6  24  2  1  22
50  6  30  5  4  29
51  6  31  5  4  28
52  6  33  6  7  8
53  11  36  8  9  10
54  6  30  5  4  3
55  6  26  3  2  25
56  6  27  3  2  24
57  6  37  8  7  6
58  8  34  7  8  9
59  6  22  1  2  3
60  6  37  8  7  35
61  6  40  11  12  13
62  6  44  13  12  43
63  8  43  12  11  10
64  12  20  18  17  16
65  3  39  10  9  8
66  6  25  2  1  21
67  13  40  11  10  39
68  6  29  4  3  2
69  6  49  15  16  17
70  6  47  14  13  12
71  6  44  13  14  15
72  6  29  4  5  6
73  6  52  17  16  15
74  6  36  8  7  35
75  6  37  8  7  34
76  6  35  7  6  33
77  6  45  13  12  43
78  6  48  15  14  46
79  6  48  15  14  13
80  6  33  6  5  30
81  6  42  12  11  40
82  6  27  3  2  1
83  6  24  2  3  4
84  6  31  5  4  3
85  6  47  14  15  16
86  6  28  4  5  6
87  6  33  6  5  4
88  6  30  5  6  7
89  13  41  11  10  39
90  6  24  2  1  21
91  6  42  12  13  14
92  6  34  7  6  5
93  6  34  7  6  32
94  6  32  6  5  4
95  6  49  15  14  13
96  12  53  17  18  20
97  6  33  6  5  31
98  6  43  12  11  41
99  6  50  16  15  14
100  6  31  5  6  7
101  3  39  10  9  38
102  6  26  3  2  24
103  8  42  12  11  10
104  6  53  17  16  50
105  6  51  16  15  49
106  6  36  8  7  6
107  13  38  9  8  37
108  6  50  16  15  49
109  6  51  16  15  48
110  6  24  2  1  23
111  6  25  2  1  22
112  14  54  19  18  20
113  6  49  15  14  47
114  6  43  12  13  14
115  6  35  7  6  32
116  6  34  7  6  33
117  6  26  3  4  5
118  12  52  17  18  19
119  10  39  10  11  12
120  6  29  4  3  27
121  6  36  8  7  34
122  6  44  13  12  42
123  6  30  5  4  28
124  6  25  2  1  23
125  11  40  11  10  9
126  6  25  2  3  4
127  6  32  6  5  31
128  6  28  4  3  26
129  6  44  13  12  11
130  6  52  17  16  50
131  6  27  3  2  25
132  13  38  9  8  36
133  11  37  8  9  10
134  6  46  14  13  12
135  6  46  14  15  16
136  6  46  14  13  44
137  11  41  11  10  9
138  6  41  11  12  13
139  6  52  17  16  51
140  12  53  17  18  19
141  12  52  17  18  20

Impropers

1  1  18  17  19  20
2  2  1  2  21  22
3  2  1  2  21  23
4  2  2  1  3  24
5  2  2  25  3  1
6  2  3  26  4  2
7  2  3  2  27  4
8  2  4  3  28  5
9  2  4  5  3  29
10  2  5  4  30  6
11  2  5  4  6  31
12  2  6  5  7  32
13  2  6  33  5  7
14  2  7  34  6  8
15  2  7  35  6  8
16  2  8  9  36  7
17  2  8  9  37  7
18  3  9  10  38  8
19  3  10  9  11  39
20  2  11  10  12  40
21  2  11  41  10  12
22  2  12  42  11  13
23  2  12  43  13  11
24  2  13  12  44  14
25  2  13  12  45  14
26  2  14  13  46  15
27  2  14  15  13  47
28  2  15  16  14  48
29  2  15  49  14  16
30  2  16  17  50  15
31  2  16  17  51  15
32  2  17  18  52  16
33  2  17  18  53  16
