#C10

32 atoms
2 atom types

31 bonds
2 bond types

60 angles
3 angle types

81 dihedrals
2 dihedral types

20 impropers
1 improper types

-0.889522235637202  0.891206422045475  xlo xhi
-2.07193750181679  0.753373419842192  ylo yhi
0.0313840987484196  13.0903932971214  zlo zhi

Masses

1  12.011
2  1.008

Pair Coeffs

1  0.066  3.5
2  0.03  2.5

Bond Coeffs

1  268.0  1.529
2  340.0  1.09

Angle Coeffs

1  58.35  112.7
2  37.5  110.7
3  33.0  107.8

Dihedral Coeffs

1  1.3  -0.2  0.2  0.0
2  0.0  0.0  0.3  0.0

Improper Coeffs

1  0.0  -1.0  2.0

Atoms # full

1  1  1  -0.2388   1.02048951141631e-05   -0.658888138570364    0.873985619531089 
2  1  1  -0.1793   0.00354355575178778    0.104217697596397    2.18854143737982 
3  1  1  -0.1784   0.00540849991277413   -0.8483547614298    3.38324689760341 
4  1  1  -0.1791   0.00716576368136209   -0.0816453610359483    4.70727844442235 
5  1  1  -0.1789   0.00721819070088294   -1.04028150039973    5.89857106676881 
6  1  1  -0.1789   0.00717445925172212   -0.276909353254315    7.2233884615256 
7  1  1  -0.179   0.00543691547924122   -1.23559591919803    8.41471516794189 
8  1  1  -0.1784   0.00358186472274053   -0.469385609690982    9.73788986468144 
9  1  1  -0.1792   0.00363683814739164   -1.42200847894019    10.9326294532368 
10  1  1  -0.2387   1.02048951141564e-05   -0.65888813857038    12.2471960964105 
11  1  2   0.0808   1.67746352599747e-05    0.0396869250638685    0.0313840987484196 
12  1  2   0.0808  -0.889522235637202   -1.29140431714788    0.79144809546888 
13  1  2   0.0808   0.886833724586694   -1.29479435353677    0.788641419441482 
14  1  2   0.0882  -0.878855491662475    0.753373419842192    2.23033753645548 
15  1  2   0.0882   0.887169596920068    0.751920429672763    2.22643416399172 
16  1  2   0.0893   0.888259570125219   -1.49737553763149    3.33327725798799 
17  1  2   0.0893  -0.877937677013941   -1.49677903699879    3.33652200528912 
18  1  2   0.0892  -0.875507817336351    0.567271052002032    4.7561519061709 
19  1  2   0.0892   0.890824886114387    0.565948847493382    4.75564063750918 
20  1  2   0.0893   0.890698754455109   -1.6882217392308    5.84797247813196 
21  1  2   0.0893  -0.876175872339424   -1.68825733006852    5.84811712589024 
22  1  2   0.0893  -0.875659129395933    0.372024487480956    7.27225223649308 
23  1  2   0.0893   0.891206422045475    0.370079598108266    7.27325729120681 
24  1  2   0.0892   0.888930098526121   -1.88366545762089    8.36534788851438 
25  1  2   0.0892  -0.877559396532215   -1.88423843931609    8.36349089079654 
26  1  2   0.0893  -0.879956492251576    0.178804169537783    9.7848748969629 
27  1  2   0.0893   0.885684796777346    0.181021481276313    9.78693591732717 
28  1  2   0.0883   0.888284648688166   -2.06802491676996    10.8936300768424 
29  1  2   0.0883  -0.878200964137599   -2.07193750181679    10.8902428718242 
30  1  2   0.0807   0.886173159274113   -0.021463366512141    12.3326746361312 
31  1  2   0.0807   0.00139574186426311   -1.35650392938987    13.0903932971214 
32  1  2   0.0807  -0.888392810600243   -0.0245563917921703    12.328833391736 

Bonds

1  1  2  1
2  1  3  2
3  1  4  3
4  1  5  4
5  1  6  5
6  1  7  6
7  1  8  7
8  1  9  8
9  1  10  9
10  2  11  1
11  2  12  1
12  2  13  1
13  2  14  2
14  2  15  2
15  2  16  3
16  2  17  3
17  2  18  4
18  2  19  4
19  2  20  5
20  2  21  5
21  2  22  6
22  2  23  6
23  2  24  7
24  2  25  7
25  2  26  8
26  2  27  8
27  2  28  9
28  2  29  9
29  2  30  10
30  2  31  10
31  2  32  10

Angles

1  1  1  2  3
2  1  2  3  4
3  1  3  4  5
4  1  4  5  6
5  1  5  6  7
6  1  6  7  8
7  1  7  8  9
8  1  8  9  10
9  2  2  1  11
10  2  2  1  12
11  2  2  1  13
12  2  1  2  14
13  2  1  2  15
14  2  2  3  16
15  2  2  3  17
16  2  3  4  18
17  2  3  4  19
18  2  4  5  20
19  2  4  5  21
20  2  5  6  22
21  2  5  6  23
22  2  6  7  24
23  2  6  7  25
24  2  7  8  26
25  2  7  8  27
26  2  8  9  28
27  2  8  9  29
28  2  9  10  30
29  2  9  10  31
30  2  9  10  32
31  2  10  9  29
32  3  16  3  17
33  2  3  2  14
34  2  3  2  15
35  3  11  1  13
36  2  10  9  28
37  3  26  8  27
38  2  7  6  22
39  3  31  10  32
40  3  14  2  15
41  2  7  6  23
42  3  30  10  32
43  3  30  10  31
44  2  8  7  25
45  3  11  1  12
46  3  12  1  13
47  2  6  5  20
48  3  22  6  23
49  2  5  4  19
50  3  28  9  29
51  2  6  5  21
52  2  9  8  26
53  2  4  3  16
54  2  4  3  17
55  2  8  7  24
56  2  5  4  18
57  3  24  7  25
58  3  18  4  19
59  2  9  8  27
60  3  20  5  21

Dihedrals

1  1  4  3  2  1
2  1  5  4  3  2
3  1  6  5  4  3
4  1  7  6  5  4
5  1  8  7  6  5
6  1  9  8  7  6
7  1  10  9  8  7
8  2  11  1  2  3
9  2  30  10  9  8
10  2  18  4  3  16
11  2  23  6  7  8
12  2  21  5  4  19
13  2  13  1  2  3
14  2  30  10  9  29
15  2  32  10  9  28
16  2  23  6  5  4
17  2  17  3  2  14
18  2  18  4  3  2
19  2  14  2  1  13
20  2  26  8  7  6
21  2  24  7  8  9
22  2  27  8  7  24
23  2  25  7  6  5
24  2  28  9  8  27
25  2  29  9  8  26
26  2  20  5  4  3
27  2  20  5  4  19
28  2  15  2  3  4
29  2  22  6  5  20
30  2  22  6  5  21
31  2  25  7  6  23
32  2  23  6  5  21
33  2  17  3  2  15
34  2  18  4  5  6
35  2  14  2  1  11
36  2  24  7  6  22
37  2  12  1  2  3
38  2  20  5  4  18
39  2  32  10  9  8
40  2  16  3  4  5
41  2  20  5  6  7
42  2  22  6  5  4
43  2  31  10  9  8
44  2  19  4  3  17
45  2  21  5  4  18
46  2  27  8  7  25
47  2  26  8  7  24
48  2  19  4  3  2
49  2  16  3  2  1
50  2  32  10  9  29
51  2  14  2  3  4
52  2  31  10  9  28
53  2  28  9  8  7
54  2  17  3  4  5
55  2  17  3  2  1
56  2  27  8  7  6
57  2  16  3  2  14
58  2  24  7  6  23
59  2  22  6  7  8
60  2  19  4  5  6
61  2  21  5  4  3
62  2  21  5  6  7
63  2  18  4  3  17
64  2  19  4  3  16
65  2  25  7  6  22
66  2  27  8  9  10
67  2  28  9  8  26
68  2  29  9  8  7
69  2  29  9  8  27
70  2  26  8  9  10
71  2  15  2  1  12
72  2  25  7  8  9
73  2  16  3  2  15
74  2  15  2  1  11
75  2  14  2  1  12
76  2  24  7  6  5
77  2  26  8  7  25
78  2  30  10  9  28
79  2  23  6  5  20
80  2  31  10  9  29
81  2  15  2  1  13

Impropers

1  1  1  2  11  12
2  1  1  2  11  13
3  1  2  1  3  14
4  1  2  1  3  15
5  1  3  2  4  16
6  1  3  17  2  4
7  1  4  18  3  5
8  1  4  19  5  3
9  1  5  4  20  6
10  1  5  4  21  6
11  1  6  5  22  7
12  1  6  7  5  23
13  1  7  8  6  24
14  1  7  25  6  8
15  1  8  9  26  7
16  1  8  9  27  7
17  1  9  10  28  8
18  1  9  10  29  8
19  1  10  9  30  31
20  1  10  9  30  32
