#C10: Decanoate

31 atoms
4 atom types

30 bonds
4 bond types

57 angles
7 angle types

78 dihedrals
5 dihedral types

19 impropers
2 improper types

-0.892664744072048  0.890529289586574  xlo xhi
-1.35882106847594  1.41115916200708  ylo yhi
-0.989032383290414  12.2707808795596  zlo zhi

Masses

1  12.011
2  12.011
3  15.999
4  1.008

Pair Coeffs

1  0.066  3.5
2  0.07  3.55
3  0.21  2.96
4  0.03  2.5

Bond Coeffs

1  268.0  1.529
2  317.0  1.522
3  656.0  1.25
4  340.0  1.09

Angle Coeffs

1  58.35  112.7
2  63.0  111.1
3  70.0  117.0
4  37.5  110.7
5  80.0  126.0
6  35.0  109.5
7  33.0  107.8

Dihedral Coeffs

1  1.3  -0.2  0.2  0.0
2  -2.06  -0.313  0.315  0.0
3  0.0  0.0  0.0  0.0
4  0.0  0.0  0.3  0.0
5  0.0  0.0  -0.1  0.0

Improper Coeffs

1  10.5  -1.0  2.0
2  0.0  -1.0  2.0

Atoms # full

1  1  1  -0.2084  -1.74423438529049e-17   -8.30255160101041e-15    11.4282418093292 
2  1  1  -0.1579   0.000793101763332405    0.761873491483131    10.1129668745856 
3  1  1  -0.1567  -0.000143546669803898   -0.190400131394514    8.91766334432172 
4  1  1  -0.1578   0.00245566446930982    0.57740175089705    7.59542265395896 
5  1  1  -0.1577  -0.00028349263969785   -0.377343553589368    6.40099761814488 
6  1  1  -0.1569   0.00412853754194234    0.393286074996319    5.0803959939843 
7  1  1  -0.1611  -0.000383607233645105   -0.554600698634581    3.88069748026299 
8  1  1  -0.1358   0.00227974680851709    0.227392250521227    2.5666770092977 
9  1  1  -0.2329  -0.00396627011065448   -0.704623361654413    1.35999169935417 
10  1  2   0.4282   0    0    0 
11  1  3  -0.6311   0.00790097565878091    1.26148513211785    0.0153719559343424 
12  1  3  -0.6311  -0.00381677975857532   -0.78969341107493   -0.989032383290414 
13  1  4   0.0666  -0.000612405682213496    0.698398109744451    12.2707808795596 
14  1  4   0.0666   0.888259793296279   -0.634102585466232    11.5133331668122 
15  1  4   0.0666  -0.888251236006667   -0.634250598115535    11.512176206466 
16  1  4   0.076   0.884866549785114    1.40909412932867    10.0735237199236 
17  1  4   0.076  -0.881562246737061    1.41115916200708    10.0724990945004 
18  1  4   0.0759  -0.884856252973491   -0.836742268634423    8.96454889681875 
19  1  4   0.0759   0.881910577081178   -0.840735992939286    8.96676783457165 
20  1  4   0.0763   0.887977637343908    1.22300755663223    7.5481110691482 
21  1  4   0.0763  -0.879007817154375    1.22840395654357    7.54786015184632 
22  1  4   0.0731  -0.886414576959538   -1.0220574732058    6.44882546102915 
23  1  4   0.0731   0.880078838232488   -1.02947756104603    6.44905951157206 
24  1  4   0.0753   0.890529289586574    1.03773342103783    5.03588085661779 
25  1  4   0.0753  -0.875772353482646    1.04690925240482    5.03550828488094 
26  1  4   0.065  -0.886764156589224   -1.1988669977212    3.92416184940982 
27  1  4   0.065   0.87998851682936   -1.20703151592136    3.92396484472288 
28  1  4   0.0793   0.888092072777848    0.873530791670745    2.52891940209098 
29  1  4   0.0793  -0.875588385899832    0.883916067974815    2.53040463425383 
30  1  4   0.0589  -0.892664744072048   -1.3469176534063    1.39881869719891 
31  1  4   0.0589   0.876114159659557   -1.35882106847594    1.39876846075751 

Bonds

1  1  2  1
2  1  3  2
3  1  4  3
4  1  5  4
5  1  6  5
6  1  7  6
7  1  8  7
8  1  9  8
9  2  10  9
10  3  11  10
11  3  12  10
12  4  13  1
13  4  14  1
14  4  15  1
15  4  16  2
16  4  17  2
17  4  18  3
18  4  19  3
19  4  20  4
20  4  21  4
21  4  22  5
22  4  23  5
23  4  24  6
24  4  25  6
25  4  26  7
26  4  27  7
27  4  28  8
28  4  29  8
29  4  30  9
30  4  31  9

Angles

1  1  1  2  3
2  1  2  3  4
3  1  3  4  5
4  1  4  5  6
5  1  5  6  7
6  1  6  7  8
7  1  7  8  9
8  2  8  9  10
9  3  9  10  11
10  3  9  10  12
11  4  2  1  13
12  4  2  1  14
13  4  2  1  15
14  4  1  2  16
15  4  1  2  17
16  4  2  3  18
17  4  2  3  19
18  4  3  4  20
19  4  3  4  21
20  4  4  5  22
21  4  4  5  23
22  4  5  6  24
23  4  5  6  25
24  4  6  7  26
25  4  6  7  27
26  4  7  8  28
27  4  7  8  29
28  4  8  9  30
29  4  8  9  31
30  5  11  10  12
31  6  10  9  30
32  4  8  7  27
33  4  7  6  24
34  7  13  1  14
35  4  9  8  28
36  7  22  5  23
37  4  6  5  22
38  4  9  8  29
39  4  3  2  17
40  4  7  6  25
41  4  4  3  19
42  7  28  8  29
43  4  8  7  26
44  4  3  2  16
45  4  4  3  18
46  7  30  9  31
47  7  16  2  17
48  7  18  3  19
49  7  14  1  15
50  6  10  9  31
51  7  26  7  27
52  7  24  6  25
53  4  5  4  20
54  4  6  5  23
55  4  5  4  21
56  7  13  1  15
57  7  20  4  21

Dihedrals

1  1  4  3  2  1
2  1  5  4  3  2
3  1  6  5  4  3
4  1  7  6  5  4
5  1  8  7  6  5
6  1  9  8  7  6
7  2  10  9  8  7
8  3  11  10  9  8
9  4  13  1  2  3
10  4  16  2  3  4
11  4  25  6  5  4
12  4  22  5  4  3
13  4  18  3  2  1
14  4  27  7  8  9
15  4  19  3  2  1
16  4  22  5  4  20
17  4  19  3  2  16
18  4  23  5  4  3
19  4  25  6  5  23
20  4  20  4  5  6
21  4  21  4  3  2
22  3  31  9  10  11
23  4  18  3  4  5
24  3  30  9  10  12
25  4  24  6  5  22
26  4  29  8  7  6
27  4  26  7  8  9
28  4  23  5  4  21
29  3  31  9  10  12
30  4  26  7  6  25
31  4  27  7  6  24
32  4  30  9  8  28
33  4  23  5  4  20
34  4  24  6  5  4
35  3  12  10  9  8
36  5  28  8  9  10
37  4  16  2  1  13
38  4  19  3  2  17
39  4  20  4  3  18
40  4  21  4  3  18
41  4  17  2  1  15
42  4  21  4  5  6
43  3  30  9  10  11
44  4  31  9  8  7
45  4  22  5  6  7
46  4  19  3  4  5
47  4  20  4  3  2
48  4  21  4  3  19
49  4  26  7  6  5
50  4  28  8  7  27
51  4  26  7  6  24
52  4  24  6  5  23
53  4  25  6  5  22
54  4  14  1  2  3
55  4  29  8  7  26
56  4  18  3  2  17
57  4  25  6  7  8
58  4  30  9  8  7
59  4  20  4  3  19
60  4  30  9  8  29
61  4  18  3  2  16
62  4  31  9  8  28
63  4  28  8  7  26
64  4  28  8  7  6
65  4  27  7  6  25
66  4  23  5  6  7
67  4  17  2  1  14
68  4  17  2  1  13
69  4  16  2  1  14
70  5  29  8  9  10
71  4  31  9  8  29
72  4  15  1  2  3
73  4  29  8  7  27
74  4  22  5  4  21
75  4  27  7  6  5
76  4  17  2  3  4
77  4  16  2  1  15
78  4  24  6  7  8

Impropers

1  1  10  9  11  12
2  2  1  2  13  14
3  2  1  2  13  15
4  2  2  1  3  16
5  2  2  17  3  1
6  2  3  18  4  2
7  2  3  2  19  4
8  2  4  3  20  5
9  2  4  5  3  21
10  2  5  4  22  6
11  2  5  4  6  23
12  2  6  5  7  24
13  2  6  25  5  7
14  2  7  26  6  8
15  2  7  27  6  8
16  2  8  9  28  7
17  2  8  9  29  7
18  2  9  10  30  8
19  2  9  10  31  8
