#2-EthylHexaneThiolate

26 atoms
3 atom types

25 bonds
3 bond types

48 angles
5 angle types

63 dihedrals
4 dihedral types

16 impropers
1 improper types

-2.13102478538155  1.49500849717532  xlo xhi
-3.45324980648503  1.55102795894366  ylo yhi
-1.45059458508973  7.15782100852175  zlo zhi

Masses

1  12.011
2  32.06
3  1.008

Pair Coeffs

1  0.066  3.5
2  0.355  3.55
3  0.03  2.5

Bond Coeffs

1  268.0  1.529
2  340.0  1.77
3  340.0  1.09

Angle Coeffs

1  58.35  112.7
2  50.0  108.6
3  37.5  110.7
4  33.0  107.8
5  35.0  109.5

Dihedral Coeffs

1  1.3  -0.2  0.2  0.0
2  1.262  -0.198  0.465  0.0
3  0.0  0.0  0.3  0.0
4  0.0  0.0  0.452  0.0

Improper Coeffs

1  0.0  -1.0  2.0

Atoms # full

1  1  1  -0.2072   3.98651117647076e-16    1.96156264242326e-15    6.37940393430295 
2  1  1  -0.1594  -0.369057992747564    0.527467790169106    5.00246024325264 
3  1  1  -0.1559   0.207436326769301   -0.363335607046228    3.89845726500738 
4  1  1  -0.1623  -0.157794209507025    0.16126140579596    2.50393348253239 
5  1  1  -0.0884   0.39644055325081   -0.694017307286372    1.33119362953898 
6  1  1  -0.1348  -0.0359557353081888   -2.17956245324555    1.42665293687731 
7  1  1  -0.1985  -1.52866404526068   -2.43550513621601    1.27389027117437 
8  1  1  -0.0808   0    0    0 
9  1  2  -0.8947   0.861600845458006   -0.714292684138929   -1.45059458508973 
10  1  3   0.0622  -0.457597501602959    0.619708861879009    7.15782100852175 
11  1  3   0.0622   1.08493102519271    0.0147574725892523    6.52588895496062 
12  1  3   0.0622  -0.35235798745311   -1.0280111176144    6.51387405120326 
13  1  3   0.0718   0.00124950177663209    1.55102795894366    4.89348707225434 
14  1  3   0.0718  -1.46002034438368    0.561554660427317    4.91273115773071 
15  1  3   0.0746  -0.181080457101982   -1.37225122512244    4.04110270079909 
16  1  3   0.0746   1.30027361742121   -0.411196848834691    3.99455008313161 
17  1  3   0.0647   0.238570608170146    1.18368441863257    2.40961851696566 
18  1  3   0.0647  -1.24701467938005    0.248646699228949    2.4242195822312 
19  1  3   0.0877   1.49500849717532   -0.676012852318988    1.4244882868501 
20  1  3   0.0712   0.296062870475113   -2.59650481796328    2.38339664441727 
21  1  3   0.0712   0.494746993022061   -2.77469100045738    0.672278426082861 
22  1  3   0.0582  -2.13102478538155   -1.74821720921819    1.87413870187958 
23  1  3   0.0582  -1.76635433683674   -3.45324980648503    1.59902627537797 
24  1  3   0.0582  -1.83723871532615   -2.34225446395394    0.227709998890158 
25  1  3   0.0341   0.252803587236936    1.06389532882808    0.0892057782765514 
26  1  3   0.0341  -1.09183727930247   -0.0208469513263106   -0.106122582638119 

Bonds

1  1  2  1
2  1  3  2
3  1  4  3
4  1  5  4
5  1  6  5
6  1  7  6
7  1  8  5
8  2  9  8
9  3  10  1
10  3  11  1
11  3  12  1
12  3  13  2
13  3  14  2
14  3  15  3
15  3  16  3
16  3  17  4
17  3  18  4
18  3  19  5
19  3  20  6
20  3  21  6
21  3  22  7
22  3  23  7
23  3  24  7
24  3  25  8
25  3  26  8

Angles

1  1  1  2  3
2  1  2  3  4
3  1  3  4  5
4  1  4  5  6
5  1  5  6  7
6  1  4  5  8
7  2  5  8  9
8  3  2  1  10
9  3  2  1  11
10  3  2  1  12
11  3  1  2  13
12  3  1  2  14
13  3  2  3  15
14  3  2  3  16
15  3  3  4  17
16  3  3  4  18
17  3  4  5  19
18  3  5  6  20
19  3  5  6  21
20  3  6  7  22
21  3  6  7  23
22  3  6  7  24
23  3  5  8  25
24  3  5  8  26
25  4  23  7  24
26  5  9  8  25
27  4  13  2  14
28  4  20  6  21
29  3  6  5  19
30  4  17  4  18
31  4  15  3  16
32  3  3  2  14
33  4  22  7  24
34  4  11  1  12
35  1  6  5  8
36  3  8  5  19
37  4  10  1  11
38  3  3  2  13
39  4  22  7  23
40  5  9  8  26
41  3  4  3  16
42  3  5  4  18
43  4  25  8  26
44  4  10  1  12
45  3  7  6  21
46  3  4  3  15
47  3  7  6  20
48  3  5  4  17

Dihedrals

1  1  4  3  2  1
2  1  5  4  3  2
3  1  6  5  4  3
4  1  7  6  5  4
5  2  9  8  5  4
6  3  10  1  2  3
7  3  22  7  6  5
8  3  18  4  3  16
9  3  15  3  4  5
10  3  22  7  6  20
11  3  17  4  3  2
12  3  15  3  2  1
13  3  18  4  3  2
14  3  20  6  5  4
15  3  19  5  4  18
16  3  16  3  2  13
17  3  11  1  2  3
18  3  18  4  3  15
19  3  23  7  6  20
20  3  22  7  6  21
21  3  17  4  5  6
22  3  15  3  2  14
23  2  9  8  5  6
24  3  19  5  4  17
25  3  26  8  5  19
26  3  17  4  3  15
27  3  18  4  5  6
28  3  13  2  1  12
29  3  14  2  1  11
30  3  21  6  5  19
31  3  12  1  2  3
32  3  14  2  1  12
33  3  19  5  6  7
34  3  26  8  5  4
35  3  19  5  4  3
36  3  26  8  5  6
37  3  17  4  3  16
38  3  14  2  1  10
39  3  23  7  6  5
40  3  21  6  5  8
41  3  16  3  2  1
42  1  8  5  6  7
43  3  14  2  3  4
44  3  13  2  3  4
45  3  16  3  2  14
46  3  13  2  1  10
47  3  18  4  5  8
48  3  13  2  1  11
49  3  21  6  5  4
50  4  19  5  8  9
51  3  20  6  5  19
52  3  15  3  2  13
53  3  23  7  6  21
54  3  25  8  5  6
55  3  24  7  6  21
56  3  24  7  6  20
57  3  25  8  5  19
58  3  20  6  5  8
59  3  16  3  4  5
60  1  8  5  4  3
61  3  17  4  5  8
62  3  24  7  6  5
63  3  25  8  5  4

Impropers

1  1  5  4  6  8
2  1  1  2  11  10
3  1  1  2  12  10
4  1  2  1  3  13
5  1  2  1  3  14
6  1  3  2  4  15
7  1  3  2  4  16
8  1  4  17  3  5
9  1  4  18  3  5
10  1  5  19  4  6
11  1  6  20  5  7
12  1  6  5  21  7
13  1  7  22  23  6
14  1  7  22  6  24
15  1  8  25  9  5
16  1  8  9  26  5
