#C14

44 atoms
2 atom types

43 bonds
2 bond types

84 angles
3 angle types

117 dihedrals
2 dihedral types

28 impropers
1 improper types

-0.89137387906233  0.888151661188747  xlo xhi
-2.08674176973499  0.804897629398651  ylo yhi
0.0247433161214096  18.1280472540329  zlo zhi

Masses

1  12.011
2  1.008

Pair Coeffs

1  0.066  3.5
2  0.03  2.5

Bond Coeffs

1  268.0  1.529
2  340.0  1.09

Angle Coeffs

1  58.35  112.7
2  37.5  110.7
3  33.0  107.8

Dihedral Coeffs

1  1.3  -0.2  0.2  0.0
2  0.0  0.0  0.3  0.0

Improper Coeffs

1  0.0  -1.0  2.0

Atoms # full

1  1  1  -0.2389  -0.00151021255136696   -0.642613415530863    0.885843757689701 
2  1  1  -0.1793   0.0019874702850973    0.154489949501826    2.18006707368595 
3  1  1  -0.1785   0.00152568360946539   -0.767415377935443    3.3973341669715 
4  1  1  -0.1792   0.00324178140480111    0.0338873075781657    4.69837156120621 
5  1  1  -0.1794   0.00096967707731796   -0.894630934943677    5.91149524960161 
6  1  1  -0.179   0.000865498802201465   -0.0994256792151089    7.21511847929973 
7  1  1  -0.1792   0.000394794838829294   -1.03335586122768    8.42334932928815 
8  1  1  -0.1791  -0.00151334960665341   -0.240922334809432    9.72868452355555 
9  1  1  -0.179  -0.000181831674038183   -1.17438323409734    10.9377959244863 
10  1  1  -0.1792  -0.00388799606646541   -0.380566298234039    12.2422839454669 
11  1  1  -0.1793  -0.000775780964734044   -1.31088623005566    13.4541538316645 
12  1  1  -0.1785  -0.0026936553211136   -0.512359681541772    14.7569108507884 
13  1  1  -0.1792  -0.00139394753808552   -1.43695762793644    15.9723082006631 
14  1  1  -0.2388  -0.00151021255136691   -0.642613415530853    17.2682406268722 
15  1  2   0.0807   0.000168636746725882    0.0327950953689695    0.0247433161214096 
16  1  2   0.0807  -0.89137387906233   -1.27677678221611    0.819615785668038 
17  1  2   0.0807   0.884007397481531   -1.28265141161319    0.818435901377945 
18  1  2   0.0883  -0.88028337087037    0.804897629398651    2.20467160127851 
19  1  2   0.0883   0.886213916751904    0.802138779142895    2.20277118858258 
20  1  2   0.0895   0.883896397584254   -1.41839834751259    3.36603698914128 
21  1  2   0.0895  -0.882453179468752   -1.41615572937118    3.36708049694643 
22  1  2   0.0894  -0.878725184653577    0.685322175679042    4.73173822577092 
23  1  2   0.0894   0.888151661188747    0.681171091290471    4.73186870442536 
24  1  2   0.0894   0.883187434305682   -1.54551291324301    5.87778738618519 
25  1  2   0.0894  -0.883155209700089   -1.5432462945578    5.87646719436755 
26  1  2   0.0896  -0.882735019716769    0.549526575428806    7.25001858339106 
27  1  2   0.0896   0.884770166997476    0.549036910814661    7.25024121943322 
28  1  2   0.0895   0.884073950215551   -1.68217707911652    8.38719385847214 
29  1  2   0.0895  -0.882236805386685   -1.68341158345358    8.38568099929178 
30  1  2   0.0895  -0.88584542531615    0.406941685661278    9.76425684075391 
31  1  2   0.0895   0.88039033670867    0.410591027193784    9.76545707030866 
32  1  2   0.0895   0.884791509093859   -1.82136316950056    10.9016773722485 
33  1  2   0.0895  -0.882114859903925   -1.82543673882944    10.9007402340554 
34  1  2   0.0894  -0.889888078294549    0.264953386128872    12.2757812825527 
35  1  2   0.0894   0.877015987911943    0.272238513780851    12.2770893490873 
36  1  2   0.0893   0.883476599638057   -1.95853720527312    13.418450516718 
37  1  2   0.0893  -0.883415630204961   -1.96188553271383    13.4194155678656 
38  1  2   0.0894  -0.886689199367262    0.136331470829707    14.7884494848983 
39  1  2   0.0894   0.879392326498307    0.139187767637338    14.7877896630366 
40  1  2   0.0884   0.882863318688186   -2.08395888220384    15.9467747597972 
41  1  2   0.0884  -0.8840196526307   -2.08674176973499    15.9462170857601 
42  1  2   0.0807   0.885064438218962   -0.00402552661253108    17.3352758029987 
43  1  2   0.0807   0.000725360041994947   -1.31975219968496    18.1280472540329 
44  1  2   0.0807  -0.889415536060858   -0.00579864332133961    17.3352911986763 

Bonds

1  1  2  1
2  1  3  2
3  1  4  3
4  1  5  4
5  1  6  5
6  1  7  6
7  1  8  7
8  1  9  8
9  1  10  9
10  1  11  10
11  1  12  11
12  1  13  12
13  1  14  13
14  2  15  1
15  2  16  1
16  2  17  1
17  2  18  2
18  2  19  2
19  2  20  3
20  2  21  3
21  2  22  4
22  2  23  4
23  2  24  5
24  2  25  5
25  2  26  6
26  2  27  6
27  2  28  7
28  2  29  7
29  2  30  8
30  2  31  8
31  2  32  9
32  2  33  9
33  2  34  10
34  2  35  10
35  2  36  11
36  2  37  11
37  2  38  12
38  2  39  12
39  2  40  13
40  2  41  13
41  2  42  14
42  2  43  14
43  2  44  14

Angles

1  1  1  2  3
2  1  2  3  4
3  1  3  4  5
4  1  4  5  6
5  1  5  6  7
6  1  6  7  8
7  1  7  8  9
8  1  8  9  10
9  1  9  10  11
10  1  10  11  12
11  1  11  12  13
12  1  12  13  14
13  2  2  1  15
14  2  2  1  16
15  2  2  1  17
16  2  1  2  18
17  2  1  2  19
18  2  2  3  20
19  2  2  3  21
20  2  3  4  22
21  2  3  4  23
22  2  4  5  24
23  2  4  5  25
24  2  5  6  26
25  2  5  6  27
26  2  6  7  28
27  2  6  7  29
28  2  7  8  30
29  2  7  8  31
30  2  8  9  32
31  2  8  9  33
32  2  9  10  34
33  2  9  10  35
34  2  10  11  36
35  2  10  11  37
36  2  11  12  38
37  2  11  12  39
38  2  12  13  40
39  2  12  13  41
40  2  13  14  42
41  2  13  14  43
42  2  13  14  44
43  2  9  8  30
44  3  18  2  19
45  3  24  5  25
46  2  14  13  41
47  2  6  5  24
48  2  12  11  37
49  2  3  2  18
50  3  15  1  16
51  3  40  13  41
52  2  7  6  27
53  2  13  12  39
54  2  11  10  34
55  3  43  14  44
56  2  12  11  36
57  3  16  1  17
58  2  13  12  38
59  3  42  14  43
60  2  5  4  23
61  2  7  6  26
62  3  26  6  27
63  2  8  7  29
64  3  42  14  44
65  2  8  7  28
66  2  11  10  35
67  2  5  4  22
68  3  38  12  39
69  3  28  7  29
70  3  34  10  35
71  2  3  2  19
72  3  36  11  37
73  2  4  3  21
74  3  22  4  23
75  3  15  1  17
76  2  10  9  33
77  2  14  13  40
78  3  30  8  31
79  2  6  5  25
80  3  32  9  33
81  2  9  8  31
82  2  4  3  20
83  2  10  9  32
84  3  20  3  21

Dihedrals

1  1  4  3  2  1
2  1  5  4  3  2
3  1  6  5  4  3
4  1  7  6  5  4
5  1  8  7  6  5
6  1  9  8  7  6
7  1  10  9  8  7
8  1  11  10  9  8
9  1  12  11  10  9
10  1  13  12  11  10
11  1  14  13  12  11
12  2  15  1  2  3
13  2  42  14  13  12
14  2  23  4  3  21
15  2  31  8  7  29
16  2  35  10  11  12
17  2  35  10  9  8
18  2  40  13  12  39
19  2  41  13  12  38
20  2  28  7  8  9
21  2  36  11  12  13
22  2  25  5  4  3
23  2  39  12  11  10
24  2  31  8  7  6
25  2  28  7  6  26
26  2  32  9  10  11
27  2  37  11  10  35
28  2  41  13  12  39
29  2  44  14  13  41
30  2  39  12  13  14
31  2  25  5  4  23
32  2  43  14  13  41
33  2  20  3  2  19
34  2  21  3  2  18
35  2  44  14  13  40
36  2  34  10  11  12
37  2  25  5  6  7
38  2  37  11  10  9
39  2  29  7  8  9
40  2  33  9  8  7
41  2  30  8  9  10
42  2  27  6  5  24
43  2  28  7  6  5
44  2  34  10  9  32
45  2  30  8  7  28
46  2  18  2  1  15
47  2  29  7  6  26
48  2  28  7  6  27
49  2  30  8  7  6
50  2  44  14  13  12
51  2  38  12  11  36
52  2  26  6  5  4
53  2  23  4  5  6
54  2  35  10  9  33
55  2  41  13  12  11
56  2  38  12  11  10
57  2  20  3  2  18
58  2  22  4  3  20
59  2  38  12  13  14
60  2  37  11  12  13
61  2  27  6  5  25
62  2  19  2  1  16
63  2  39  12  11  37
64  2  40  13  12  38
65  2  42  14  13  41
66  2  35  10  9  32
67  2  34  10  9  33
68  2  43  14  13  40
69  2  24  5  4  23
70  2  25  5  4  22
71  2  43  14  13  12
72  2  22  4  3  2
73  2  20  3  4  5
74  2  32  9  8  30
75  2  24  5  6  7
76  2  27  6  5  4
77  2  23  4  3  2
78  2  18  2  1  17
79  2  34  10  9  8
80  2  26  6  5  24
81  2  39  12  11  36
82  2  38  12  11  37
83  2  21  3  2  19
84  2  21  3  4  5
85  2  31  8  9  10
86  2  33  9  10  11
87  2  24  5  4  3
88  2  37  11  10  34
89  2  36  11  10  35
90  2  32  9  8  7
91  2  27  6  7  8
92  2  17  1  2  3
93  2  31  8  7  28
94  2  30  8  7  29
95  2  24  5  4  22
96  2  19  2  3  4
97  2  40  13  12  11
98  2  26  6  7  8
99  2  29  7  6  5
100  2  36  11  10  34
101  2  32  9  8  31
102  2  33  9  8  30
103  2  23  4  3  20
104  2  22  4  3  21
105  2  36  11  10  9
106  2  18  2  3  4
107  2  19  2  1  17
108  2  21  3  2  1
109  2  22  4  5  6
110  2  33  9  8  31
111  2  16  1  2  3
112  2  26  6  5  25
113  2  29  7  6  27
114  2  20  3  2  1
115  2  18  2  1  16
116  2  42  14  13  40
117  2  19  2  1  15

Impropers

1  1  1  2  15  16
2  1  1  17  15  2
3  1  2  1  18  3
4  1  2  1  19  3
5  1  3  4  2  20
6  1  3  2  4  21
7  1  4  3  5  22
8  1  4  3  5  23
9  1  5  4  6  24
10  1  5  25  4  6
11  1  6  26  5  7
12  1  6  27  5  7
13  1  7  28  6  8
14  1  7  29  6  8
15  1  8  9  30  7
16  1  8  9  7  31
17  1  9  10  8  32
18  1  9  33  10  8
19  1  10  9  34  11
20  1  10  9  35  11
21  1  11  12  10  36
22  1  11  10  12  37
23  1  12  11  13  38
24  1  12  11  13  39
25  1  13  12  14  40
26  1  13  41  12  14
27  1  14  42  43  13
28  1  14  42  44  13
