#C14: Tetradecanoate

43 atoms
4 atom types

42 bonds
4 bond types

81 angles
7 angle types

114 dihedrals
5 dihedral types

27 impropers
2 improper types

-0.893182316759912  0.892287493836462  xlo xhi
-1.39212307617433  1.45026241366182  ylo yhi
-1.00885837788378  17.2888319325471  zlo zhi

Masses

1  12.011
2  12.011
3  15.999
4  1.008

Pair Coeffs

1  0.066  3.5
2  0.07  3.55
3  0.21  2.96
4  0.03  2.5

Bond Coeffs

1  268.0  1.529
2  317.0  1.522
3  656.0  1.25
4  340.0  1.09

Angle Coeffs

1  58.35  112.7
2  63.0  111.1
3  70.0  117.0
4  37.5  110.7
5  33.0  107.8
6  80.0  126.0
7  35.0  109.5

Dihedral Coeffs

1  1.3  -0.2  0.2  0.0
2  -2.06  -0.313  0.315  0.0
3  0.0  0.0  0.0  0.0
4  0.0  0.0  0.3  0.0
5  0.0  0.0  -0.1  0.0

Improper Coeffs

1  10.5  -1.0  2.0
2  0.0  -1.0  2.0

Atoms # full

1  1  1  -0.2089  -4.29026580233935e-17    2.15989633385186e-14    16.4281483424517 
2  1  1  -0.1577  -0.00457858814437919    0.796489996088121    15.1335508286807 
3  1  1  -0.1567   0.00072612870387421   -0.127468086000245    13.918140138822 
4  1  1  -0.1575  -0.00566850586809533    0.671806843224825    12.6158695733246 
5  1  1  -0.1574  -0.00211682612202142   -0.258589058680829    11.4047230407002 
6  1  1  -0.1576  -0.00668149864179193    0.535474892576378    10.1015882139541 
7  1  1  -0.1575  -0.00492040318960003   -0.398304975274472    8.8930624984481 
8  1  1  -0.1579  -0.00768505649513991    0.395760798961792    7.58992242716694 
9  1  1  -0.1579  -0.00412831018064716   -0.535516821355319    6.37940751703483 
10  1  1  -0.1574  -0.00511295530694079    0.265517754583729    5.0805486457851 
11  1  1  -0.1612   0.000218844970709629   -0.654452822929206    3.86054647754264 
12  1  1  -0.1357  -0.00264186540289097    0.161561728298864    2.56856232225272 
13  1  1  -0.233   0.000817181681711851   -0.74052999711244    1.3407808260826 
14  1  2   0.428   0    0    0 
15  1  3  -0.6312  -0.00340039906701008    1.26043734916091    0.0487111304158424 
16  1  3  -0.6312   0.00144528665390594   -0.763824948676198   -1.00885837788378 
17  1  4   0.0688  -0.00517910026730598    0.675633247820937    17.2888319325471 
18  1  4   0.0688   0.892287493836462   -0.630632722281804    16.4949041701409 
19  1  4   0.0688  -0.88374209916318   -0.642768533498773    16.4937189800151 
20  1  4   0.077   0.874990330831424    1.45026241366182    15.108814188012 
21  1  4   0.077  -0.891640618466847    1.44013103848416    15.1088289698605 
22  1  4   0.0776  -0.877933458600089   -0.782859312015768    13.9500963760958 
23  1  4   0.0776   0.888297706385939   -0.771026358971996    13.9487816691459 
24  1  4   0.0778   0.873979274445648    1.32577327990897    12.5806850315521 
25  1  4   0.0778  -0.89280259354326    1.31580243659845    12.5831473331796 
26  1  4   0.0771  -0.882157388033077   -0.912072269620708    11.4402062721057 
27  1  4   0.0771   0.884107536240618   -0.90437488034677    11.4398694059487 
28  1  4   0.0775   0.874333441242336    1.18819757872028    10.0632854099568 
29  1  4   0.0775  -0.89245917413518    1.1818384074913    10.0656215796333 
30  1  4   0.0761  -0.886936046830437   -1.04916770817414    8.93016494169942 
31  1  4   0.0761   0.880566690134457   -1.04456795268515    8.92909201530306 
32  1  4   0.0768   0.873138993903982    1.04863931447601    7.55523850122944 
33  1  4   0.0768  -0.893182316759912    1.04205331400158    7.55508522912917 
34  1  4   0.0734  -0.88574809889359   -1.18739891925901    6.41353318453635 
35  1  4   0.0734   0.880953583366639   -1.18261681492023    6.41492349995862 
36  1  4   0.0754   0.87529728264495    0.919061424113738    5.05214596410282 
37  1  4   0.0754  -0.890601177636587    0.91197980905092    5.05051216380832 
38  1  4   0.0651  -0.880183398572708   -1.30764724012855    3.88916400544657 
39  1  4   0.0651   0.886887578942048   -1.29925979778309    3.89042294784037 
40  1  4   0.0794   0.876816017277439    0.8172575447971    2.54970586929511 
41  1  4   0.0794  -0.887500288362156    0.809805787440223    2.549012856634 
42  1  4   0.059  -0.881274303205641   -1.39212307617433    1.36334487731181 
43  1  4   0.059   0.888061877625466   -1.38637595260944    1.36414548503252 

Bonds

1  1  2  1
2  1  3  2
3  1  4  3
4  1  5  4
5  1  6  5
6  1  7  6
7  1  8  7
8  1  9  8
9  1  10  9
10  1  11  10
11  1  12  11
12  1  13  12
13  2  14  13
14  3  15  14
15  3  16  14
16  4  17  1
17  4  18  1
18  4  19  1
19  4  20  2
20  4  21  2
21  4  22  3
22  4  23  3
23  4  24  4
24  4  25  4
25  4  26  5
26  4  27  5
27  4  28  6
28  4  29  6
29  4  30  7
30  4  31  7
31  4  32  8
32  4  33  8
33  4  34  9
34  4  35  9
35  4  36  10
36  4  37  10
37  4  38  11
38  4  39  11
39  4  40  12
40  4  41  12
41  4  42  13
42  4  43  13

Angles

1  1  1  2  3
2  1  2  3  4
3  1  3  4  5
4  1  4  5  6
5  1  5  6  7
6  1  6  7  8
7  1  7  8  9
8  1  8  9  10
9  1  9  10  11
10  1  10  11  12
11  1  11  12  13
12  2  12  13  14
13  3  13  14  15
14  3  13  14  16
15  4  2  1  17
16  4  2  1  18
17  4  2  1  19
18  4  1  2  20
19  4  1  2  21
20  4  2  3  22
21  4  2  3  23
22  4  3  4  24
23  4  3  4  25
24  4  4  5  26
25  4  4  5  27
26  4  5  6  28
27  4  5  6  29
28  4  6  7  30
29  4  6  7  31
30  4  7  8  32
31  4  7  8  33
32  4  8  9  34
33  4  8  9  35
34  4  9  10  36
35  4  9  10  37
36  4  10  11  38
37  4  10  11  39
38  4  11  12  40
39  4  11  12  41
40  4  12  13  42
41  4  12  13  43
42  4  9  8  32
43  4  13  12  40
44  5  17  1  19
45  4  3  2  20
46  5  34  9  35
47  6  15  14  16
48  4  9  8  33
49  4  3  2  21
50  5  28  6  29
51  4  5  4  24
52  7  14  13  43
53  5  36  10  37
54  5  24  4  25
55  4  4  3  22
56  4  7  6  28
57  4  10  9  34
58  5  22  3  23
59  4  4  3  23
60  4  11  10  36
61  4  6  5  27
62  7  14  13  42
63  5  18  1  19
64  5  26  5  27
65  5  32  8  33
66  4  12  11  39
67  4  7  6  29
68  4  5  4  25
69  4  8  7  31
70  4  11  10  37
71  5  40  12  41
72  4  6  5  26
73  5  20  2  21
74  5  17  1  18
75  5  42  13  43
76  5  38  11  39
77  4  12  11  38
78  5  30  7  31
79  4  13  12  41
80  4  8  7  30
81  4  10  9  35

Dihedrals

1  1  4  3  2  1
2  1  5  4  3  2
3  1  6  5  4  3
4  1  7  6  5  4
5  1  8  7  6  5
6  1  9  8  7  6
7  1  10  9  8  7
8  1  11  10  9  8
9  1  12  11  10  9
10  1  13  12  11  10
11  2  14  13  12  11
12  3  15  14  13  12
13  4  17  1  2  3
14  4  31  7  6  5
15  4  31  7  8  9
16  4  28  6  7  8
17  4  35  9  10  11
18  4  25  4  3  22
19  4  43  13  12  41
20  4  38  11  10  9
21  4  21  2  1  17
22  4  20  2  1  18
23  4  24  4  3  23
24  4  19  1  2  3
25  4  38  11  10  36
26  4  23  3  2  20
27  4  22  3  2  21
28  4  33  8  7  6
29  4  28  6  5  4
30  4  30  7  6  5
31  4  25  4  5  6
32  4  23  3  4  5
33  4  39  11  10  36
34  4  38  11  10  37
35  4  34  9  8  32
36  4  32  8  7  30
37  4  41  12  11  39
38  4  32  8  7  31
39  4  33  8  7  30
40  4  26  5  4  24
41  4  30  7  6  29
42  4  31  7  6  28
43  4  34  9  10  11
44  4  34  9  8  33
45  4  35  9  8  32
46  4  21  2  1  18
47  4  40  12  11  10
48  4  20  2  1  19
49  4  43  13  12  11
50  4  37  10  9  35
51  3  43  13  14  16
52  4  24  4  3  22
53  4  27  5  4  25
54  4  35  9  8  33
55  4  32  8  9  10
56  4  26  5  4  3
57  4  41  12  11  38
58  4  38  11  12  13
59  4  41  12  11  10
60  4  39  11  10  9
61  4  27  5  6  7
62  4  36  10  11  12
63  4  37  10  9  8
64  4  30  7  8  9
65  4  37  10  9  34
66  4  36  10  9  35
67  4  32  8  7  6
68  4  42  13  12  11
69  3  42  13  14  16
70  3  16  14  13  12
71  4  35  9  8  7
72  4  33  8  7  31
73  4  39  11  12  13
74  4  22  3  2  20
75  4  42  13  12  41
76  4  29  6  7  8
77  4  34  9  8  7
78  4  24  4  3  2
79  4  36  10  9  8
80  4  24  4  5  6
81  4  20  2  1  17
82  4  25  4  3  23
83  4  43  13  12  40
84  4  36  10  9  34
85  4  29  6  5  27
86  4  23  3  2  1
87  4  20  2  3  4
88  4  31  7  6  29
89  4  40  12  11  39
90  5  40  12  13  14
91  4  23  3  2  21
92  4  21  2  3  4
93  4  28  6  5  26
94  4  26  5  6  7
95  4  29  6  5  4
96  4  22  3  2  1
97  4  39  11  10  37
98  4  27  5  4  3
99  4  18  1  2  3
100  4  37  10  11  12
101  4  21  2  1  19
102  4  29  6  5  26
103  4  28  6  5  27
104  3  42  13  14  15
105  4  25  4  3  2
106  4  22  3  4  5
107  5  41  12  13  14
108  4  40  12  11  38
109  4  33  8  9  10
110  4  26  5  4  25
111  4  27  5  4  24
112  3  43  13  14  15
113  4  42  13  12  40
114  4  30  7  6  28

Impropers

1  1  14  13  15  16
2  2  1  18  17  2
3  2  1  2  19  17
4  2  2  1  3  20
5  2  2  1  3  21
6  2  3  2  4  22
7  2  3  2  4  23
8  2  4  3  5  24
9  2  4  25  3  5
10  2  5  26  4  6
11  2  5  27  4  6
12  2  6  28  5  7
13  2  6  5  29  7
14  2  7  8  30  6
15  2  7  8  31  6
16  2  8  9  7  32
17  2  8  33  9  7
18  2  9  34  10  8
19  2  9  10  35  8
20  2  10  9  11  36
21  2  10  9  11  37
22  2  11  10  12  38
23  2  11  10  12  39
24  2  12  11  13  40
25  2  12  41  11  13
26  2  13  42  12  14
27  2  13  43  12  14
