#C14_acid

44 atoms
6 atom types

43 bonds
6 bond types

82 angles
9 angle types

116 dihedrals
8 dihedral types

27 impropers
2 improper types

-0.897632205188982  0.893052718250755  xlo xhi
-1.44754343155032  1.74422309594493  ylo yhi
-1.09871405968824  17.2349614309318  zlo zhi

Masses

1  12.011
2  12.011
3  15.999
4  15.999
5  1.008
6  1.008

Pair Coeffs

1  0.066  3.5
2  0.07  3.55
3  0.21  2.96
4  0.17  3.12
5  0.03  2.5
6  0.0  0.0

Bond Coeffs

1  268.0  1.529
2  317.0  1.522
3  570.0  1.229
4  450.0  1.364
5  340.0  1.09
6  553.0  0.945

Angle Coeffs

1  58.35  112.7
2  63.0  111.1
3  80.0  120.4
4  70.0  108.0
5  37.5  110.7
6  35.0  113.0
7  33.0  107.8
8  80.0  121.0
9  35.0  109.5

Dihedral Coeffs

1  1.3  -0.2  0.2  0.0
2  -2.06  -0.313  0.315  0.0
3  0.0  0.0  0.0  0.0
4  0.0  0.0  0.3  0.0
5  1.5  5.5  0.0  0.0
6  0.0  5.5  0.0  0.0
7  1.0  0.546  0.45  0.0
8  0.0  0.0  -0.1  0.0

Improper Coeffs

1  10.5  -1.0  2.0
2  0.0  -1.0  2.0

Atoms # full

1  1  1  -0.2389  -4.72189669131865e-17    2.52692612018291e-14    16.3758632704722 
2  1  1  -0.1792   0.00530106255673948   -0.793379615210025    15.0793600175241 
3  1  1  -0.1786  -0.000252985906027705    0.13360762163462    13.8660948629215 
4  1  1  -0.1792   0.00325879333923345   -0.661161348030444    12.5610554188188 
5  1  1  -0.1792  -0.000530828290313449    0.274458548264846    11.3530662843791 
6  1  1  -0.1791   0.00475448378077591   -0.512799895511974    10.0446104998077 
7  1  1  -0.179   0.00272881152114118    0.428370071484661    8.84143896828135 
8  1  1  -0.1793   0.0061935574066443   -0.355597143219547    7.53213409599038 
9  1  1  -0.1786   0.00238337084594812    0.58318530681222    6.32689912765817 
10  1  1  -0.1785   0.00408308860544278   -0.209674207179427    5.02185619026781 
11  1  1  -0.1797   0.00210433704874036    0.715017314933849    3.80532095219449 
12  1  1  -0.1705   0.00204785294470589   -0.0979170054178678    2.51138298687164 
13  1  1  -0.2608  -0.00170673412208501    0.804417962707713    1.28038409082268 
14  1  2   0.5099   0    0    0 
15  1  3  -0.4444   0.00388530353790397   -1.21756836403002   -0.0708871986305012 
16  1  4  -0.56  -0.00171572441058304    0.789631149165948   -1.09871405968824 
17  1  5   0.0808   0.00536734086713456   -0.677752612644889    17.2349614309318 
18  1  5   0.0808  -0.892374122513633    0.630363674043721    16.4448733401299 
19  1  5   0.0808   0.88297901249674    0.643430677659999    16.4441360984223 
20  1  5   0.0886  -0.873840064491463   -1.44754343155032    15.0528424248069 
21  1  5   0.0886   0.893052718250755   -1.43611459217437    15.0542454301459 
22  1  5   0.0893   0.87947712363787    0.7877152326557    13.8985111792789 
23  1  5   0.0893  -0.886829073541217    0.778333703139763    13.8993748983859 
24  1  5   0.0897  -0.87740831699255   -1.31400038529751    12.5243418300528 
25  1  5   0.0897   0.889439629244642   -1.30652611794126    12.5246474522186 
26  1  5   0.0893   0.879176678257204    0.928721011524957    11.3924220538769 
27  1  5   0.0893  -0.887120156269511    0.919532396932569    11.3908229907822 
28  1  5   0.0902  -0.875270996327887   -1.1657678324984    10.0044612603728 
29  1  5   0.0902   0.891279852927212   -1.15727539661535    10.0076597645331 
30  1  5   0.0893   0.883749341623288    1.08047590119102    8.88329221667991 
31  1  5   0.0893  -0.882530533213209    1.07494147549744    8.88180185437064 
32  1  5   0.0909  -0.874762766864213   -1.0084754506179    7.49309858708059 
33  1  5   0.0909   0.891890065673042   -1.00179568320523    7.49388959618869 
34  1  5   0.0893   0.884041696316489    1.23420521080633    6.36472996603096 
35  1  5   0.0893  -0.883390638583888    1.22893294414883    6.36659161930055 
36  1  5   0.0938  -0.877733696898435   -0.861123470108972    4.98897698206321 
37  1  5   0.0938   0.888610156944284   -0.857726084503782    4.98825818925176 
38  1  5   0.0882   0.884641226250526    1.36500585953589    3.83440743675612 
39  1  5   0.0882  -0.881924323336729    1.36341872372366    3.83636233097277 
40  1  5   0.111  -0.877123021827859   -0.753925316159185    2.49068352576835 
41  1  5   0.111   0.884805610121947   -0.74960373166838    2.48703635933727 
42  1  5   0.121   0.889065786947215    1.44168011159101    1.28681002332235 
43  1  5   0.121  -0.897632205188982    1.43568775133973    1.28786117274365 
44  1  6   0.4514  -0.00376582804037989    1.74422309594493   -0.89503131515688 

Bonds

1  1  2  1
2  1  3  2
3  1  4  3
4  1  5  4
5  1  6  5
6  1  7  6
7  1  8  7
8  1  9  8
9  1  10  9
10  1  11  10
11  1  12  11
12  1  13  12
13  2  14  13
14  3  15  14
15  4  16  14
16  5  17  1
17  5  18  1
18  5  19  1
19  5  20  2
20  5  21  2
21  5  22  3
22  5  23  3
23  5  24  4
24  5  25  4
25  5  26  5
26  5  27  5
27  5  28  6
28  5  29  6
29  5  30  7
30  5  31  7
31  5  32  8
32  5  33  8
33  5  34  9
34  5  35  9
35  5  36  10
36  5  37  10
37  5  38  11
38  5  39  11
39  5  40  12
40  5  41  12
41  5  42  13
42  5  43  13
43  6  44  16

Angles

1  1  1  2  3
2  1  2  3  4
3  1  3  4  5
4  1  4  5  6
5  1  5  6  7
6  1  6  7  8
7  1  7  8  9
8  1  8  9  10
9  1  9  10  11
10  1  10  11  12
11  1  11  12  13
12  2  12  13  14
13  3  13  14  15
14  4  13  14  16
15  5  2  1  17
16  5  2  1  18
17  5  2  1  19
18  5  1  2  20
19  5  1  2  21
20  5  2  3  22
21  5  2  3  23
22  5  3  4  24
23  5  3  4  25
24  5  4  5  26
25  5  4  5  27
26  5  5  6  28
27  5  5  6  29
28  5  6  7  30
29  5  6  7  31
30  5  7  8  32
31  5  7  8  33
32  5  8  9  34
33  5  8  9  35
34  5  9  10  36
35  5  9  10  37
36  5  10  11  38
37  5  10  11  39
38  5  11  12  40
39  5  11  12  41
40  5  12  13  42
41  5  12  13  43
42  6  14  16  44
43  5  9  8  32
44  5  13  12  40
45  7  17  1  19
46  5  3  2  20
47  7  34  9  35
48  8  15  14  16
49  5  9  8  33
50  5  3  2  21
51  7  28  6  29
52  5  5  4  24
53  9  14  13  43
54  7  36  10  37
55  7  24  4  25
56  5  4  3  22
57  5  7  6  28
58  5  10  9  34
59  7  22  3  23
60  5  4  3  23
61  5  11  10  36
62  5  6  5  27
63  9  14  13  42
64  7  18  1  19
65  7  26  5  27
66  7  32  8  33
67  5  12  11  39
68  5  7  6  29
69  5  5  4  25
70  5  8  7  31
71  5  11  10  37
72  7  40  12  41
73  5  6  5  26
74  7  20  2  21
75  7  17  1  18
76  7  42  13  43
77  7  38  11  39
78  5  12  11  38
79  7  30  7  31
80  5  13  12  41
81  5  8  7  30
82  5  10  9  35

Dihedrals

1  1  4  3  2  1
2  1  5  4  3  2
3  1  6  5  4  3
4  1  7  6  5  4
5  1  8  7  6  5
6  1  9  8  7  6
7  1  10  9  8  7
8  1  11  10  9  8
9  1  12  11  10  9
10  1  13  12  11  10
11  2  14  13  12  11
12  3  15  14  13  12
13  4  17  1  2  3
14  5  44  16  14  13
15  4  31  7  6  5
16  4  31  7  8  9
17  4  28  6  7  8
18  4  35  9  10  11
19  4  25  4  3  22
20  4  43  13  12  41
21  6  44  16  14  15
22  4  38  11  10  9
23  4  21  2  1  17
24  4  20  2  1  18
25  4  24  4  3  23
26  4  19  1  2  3
27  4  38  11  10  36
28  4  23  3  2  20
29  4  22  3  2  21
30  4  33  8  7  6
31  4  28  6  5  4
32  4  30  7  6  5
33  4  25  4  5  6
34  4  23  3  4  5
35  4  39  11  10  36
36  4  38  11  10  37
37  4  34  9  8  32
38  4  32  8  7  30
39  4  41  12  11  39
40  4  32  8  7  31
41  4  33  8  7  30
42  4  29  6  5  27
43  4  26  5  4  24
44  4  30  7  6  29
45  4  31  7  6  28
46  4  34  9  10  11
47  4  34  9  8  33
48  4  35  9  8  32
49  4  21  2  1  18
50  4  40  12  11  10
51  4  20  2  1  19
52  4  43  13  12  11
53  4  37  10  9  35
54  3  43  13  14  16
55  4  24  4  3  22
56  4  27  5  4  25
57  4  35  9  8  33
58  4  32  8  9  10
59  4  26  5  4  3
60  4  41  12  11  38
61  4  38  11  12  13
62  4  41  12  11  10
63  4  39  11  10  9
64  4  27  5  6  7
65  4  36  10  11  12
66  4  37  10  9  8
67  4  30  7  8  9
68  4  37  10  9  34
69  4  36  10  9  35
70  4  32  8  7  6
71  4  42  13  12  11
72  3  42  13  14  16
73  7  16  14  13  12
74  4  35  9  8  7
75  4  33  8  7  31
76  4  39  11  12  13
77  4  22  3  2  20
78  4  42  13  12  41
79  4  29  6  7  8
80  4  34  9  8  7
81  4  24  4  3  2
82  4  36  10  9  8
83  4  24  4  5  6
84  4  20  2  1  17
85  4  25  4  3  23
86  4  43  13  12  40
87  4  36  10  9  34
88  4  23  3  2  1
89  4  20  2  3  4
90  4  31  7  6  29
91  4  40  12  11  39
92  8  40  12  13  14
93  4  23  3  2  21
94  4  21  2  3  4
95  4  28  6  5  26
96  4  26  5  6  7
97  4  29  6  5  4
98  4  22  3  2  1
99  4  39  11  10  37
100  4  27  5  4  3
101  4  18  1  2  3
102  4  37  10  11  12
103  4  21  2  1  19
104  4  29  6  5  26
105  4  28  6  5  27
106  3  42  13  14  15
107  4  25  4  3  2
108  4  22  3  4  5
109  8  41  12  13  14
110  4  40  12  11  38
111  4  33  8  9  10
112  4  26  5  4  25
113  4  27  5  4  24
114  3  43  13  14  15
115  4  42  13  12  40
116  4  30  7  6  28

Impropers

1  1  14  13  15  16
2  2  1  18  17  2
3  2  1  2  19  17
4  2  2  1  3  20
5  2  2  1  3  21
6  2  3  2  4  22
7  2  3  2  4  23
8  2  4  3  5  24
9  2  4  25  3  5
10  2  5  26  4  6
11  2  5  27  4  6
12  2  6  28  5  7
13  2  6  5  29  7
14  2  7  8  30  6
15  2  7  8  31  6
16  2  8  9  7  32
17  2  8  33  9  7
18  2  9  34  10  8
19  2  9  10  35  8
20  2  10  9  11  36
21  2  10  9  11  37
22  2  11  10  12  38
23  2  11  10  12  39
24  2  12  11  13  40
25  2  12  41  11  13
26  2  13  42  12  14
27  2  13  43  12  14
