LAMMPS data file Created by LigParGen - (Written by Leela S. Dodda)

      44 atoms
      43 bonds
      84 angles
     117 dihedrals
      28 impropers
 
      44 atom types
      43 bond types
      84 angle types
     117 dihedral types
      28 improper types
 
  -13.343250    36.656750 xlo xhi
    0.088950    50.088950 ylo yhi
   -1.026660    48.973340 zlo zhi

Masses

       1     12.011  
       2     12.011  
       3     12.011  
       4     12.011  
       5     12.011  
       6     12.011  
       7     12.011  
       8     12.011  
       9     12.011  
      10     12.011  
      11     12.011  
      12     12.011  
      13     12.011  
      14     12.011  
      15      1.008  
      16      1.008  
      17      1.008  
      18      1.008  
      19      1.008  
      20      1.008  
      21      1.008  
      22      1.008  
      23      1.008  
      24      1.008  
      25      1.008  
      26      1.008  
      27      1.008  
      28      1.008  
      29      1.008  
      30      1.008  
      31      1.008  
      32      1.008  
      33      1.008  
      34      1.008  
      35      1.008  
      36      1.008  
      37      1.008  
      38      1.008  
      39      1.008  
      40      1.008  
      41      1.008  
      42      1.008  
      43      1.008  
      44      1.008  

Pair Coeffs 

       1      0.066  3.5000000 
       2      0.066  3.5000000 
       3      0.066  3.5000000 
       4      0.066  3.5000000 
       5      0.066  3.5000000 
       6      0.066  3.5000000 
       7      0.066  3.5000000 
       8      0.066  3.5000000 
       9      0.066  3.5000000 
      10      0.066  3.5000000 
      11      0.066  3.5000000 
      12      0.066  3.5000000 
      13      0.066  3.5000000 
      14      0.066  3.5000000 
      15      0.030  2.5000000 
      16      0.030  2.5000000 
      17      0.030  2.5000000 
      18      0.030  2.5000000 
      19      0.030  2.5000000 
      20      0.030  2.5000000 
      21      0.030  2.5000000 
      22      0.030  2.5000000 
      23      0.030  2.5000000 
      24      0.030  2.5000000 
      25      0.030  2.5000000 
      26      0.030  2.5000000 
      27      0.030  2.5000000 
      28      0.030  2.5000000 
      29      0.030  2.5000000 
      30      0.030  2.5000000 
      31      0.030  2.5000000 
      32      0.030  2.5000000 
      33      0.030  2.5000000 
      34      0.030  2.5000000 
      35      0.030  2.5000000 
      36      0.030  2.5000000 
      37      0.030  2.5000000 
      38      0.030  2.5000000 
      39      0.030  2.5000000 
      40      0.030  2.5000000 
      41      0.030  2.5000000 
      42      0.030  2.5000000 
      43      0.030  2.5000000 
      44      0.030  2.5000000 

Bond Coeffs 

       1   268.0000     1.5290 
       2   268.0000     1.5290 
       3   268.0000     1.5290 
       4   268.0000     1.5290 
       5   268.0000     1.5290 
       6   268.0000     1.5290 
       7   268.0000     1.5290 
       8   268.0000     1.5290 
       9   268.0000     1.5290 
      10   268.0000     1.5290 
      11   268.0000     1.5290 
      12   268.0000     1.5290 
      13   268.0000     1.5290 
      14   340.0000     1.0900 
      15   340.0000     1.0900 
      16   340.0000     1.0900 
      17   340.0000     1.0900 
      18   340.0000     1.0900 
      19   340.0000     1.0900 
      20   340.0000     1.0900 
      21   340.0000     1.0900 
      22   340.0000     1.0900 
      23   340.0000     1.0900 
      24   340.0000     1.0900 
      25   340.0000     1.0900 
      26   340.0000     1.0900 
      27   340.0000     1.0900 
      28   340.0000     1.0900 
      29   340.0000     1.0900 
      30   340.0000     1.0900 
      31   340.0000     1.0900 
      32   340.0000     1.0900 
      33   340.0000     1.0900 
      34   340.0000     1.0900 
      35   340.0000     1.0900 
      36   340.0000     1.0900 
      37   340.0000     1.0900 
      38   340.0000     1.0900 
      39   340.0000     1.0900 
      40   340.0000     1.0900 
      41   340.0000     1.0900 
      42   340.0000     1.0900 
      43   340.0000     1.0900 

Angle Coeffs 

       1     58.350    112.700
       2     58.350    112.700
       3     58.350    112.700
       4     58.350    112.700
       5     58.350    112.700
       6     58.350    112.700
       7     58.350    112.700
       8     58.350    112.700
       9     58.350    112.700
      10     58.350    112.700
      11     58.350    112.700
      12     58.350    112.700
      13     37.500    110.700
      14     37.500    110.700
      15     37.500    110.700
      16     37.500    110.700
      17     37.500    110.700
      18     37.500    110.700
      19     37.500    110.700
      20     37.500    110.700
      21     37.500    110.700
      22     37.500    110.700
      23     37.500    110.700
      24     37.500    110.700
      25     37.500    110.700
      26     37.500    110.700
      27     37.500    110.700
      28     37.500    110.700
      29     37.500    110.700
      30     37.500    110.700
      31     37.500    110.700
      32     37.500    110.700
      33     37.500    110.700
      34     37.500    110.700
      35     37.500    110.700
      36     37.500    110.700
      37     37.500    110.700
      38     37.500    110.700
      39     37.500    110.700
      40     37.500    110.700
      41     37.500    110.700
      42     37.500    110.700
      43     37.500    110.700
      44     33.000    107.800
      45     33.000    107.800
      46     37.500    110.700
      47     37.500    110.700
      48     37.500    110.700
      49     37.500    110.700
      50     33.000    107.800
      51     33.000    107.800
      52     37.500    110.700
      53     37.500    110.700
      54     37.500    110.700
      55     33.000    107.800
      56     37.500    110.700
      57     33.000    107.800
      58     37.500    110.700
      59     33.000    107.800
      60     37.500    110.700
      61     37.500    110.700
      62     33.000    107.800
      63     37.500    110.700
      64     33.000    107.800
      65     37.500    110.700
      66     37.500    110.700
      67     37.500    110.700
      68     33.000    107.800
      69     33.000    107.800
      70     33.000    107.800
      71     37.500    110.700
      72     33.000    107.800
      73     37.500    110.700
      74     33.000    107.800
      75     33.000    107.800
      76     37.500    110.700
      77     37.500    110.700
      78     33.000    107.800
      79     37.500    110.700
      80     33.000    107.800
      81     37.500    110.700
      82     37.500    110.700
      83     37.500    110.700
      84     33.000    107.800

Dihedral Coeffs  

       1      1.300     -0.200      0.200      0.000 
       2      1.300     -0.200      0.200      0.000 
       3      1.300     -0.200      0.200      0.000 
       4      1.300     -0.200      0.200      0.000 
       5      1.300     -0.200      0.200      0.000 
       6      1.300     -0.200      0.200      0.000 
       7      1.300     -0.200      0.200      0.000 
       8      1.300     -0.200      0.200      0.000 
       9      1.300     -0.200      0.200      0.000 
      10      1.300     -0.200      0.200      0.000 
      11      1.300     -0.200      0.200      0.000 
      12      0.000      0.000      0.300      0.000 
      13      0.000      0.000      0.300      0.000 
      14      0.000      0.000      0.300      0.000 
      15      0.000      0.000      0.300      0.000 
      16      0.000      0.000      0.300      0.000 
      17      0.000      0.000      0.300      0.000 
      18      0.000      0.000      0.300      0.000 
      19      0.000      0.000      0.300      0.000 
      20      0.000      0.000      0.300      0.000 
      21      0.000      0.000      0.300      0.000 
      22      0.000      0.000      0.300      0.000 
      23      0.000      0.000      0.300      0.000 
      24      0.000      0.000      0.300      0.000 
      25      0.000      0.000      0.300      0.000 
      26      0.000      0.000      0.300      0.000 
      27      0.000      0.000      0.300      0.000 
      28      0.000      0.000      0.300      0.000 
      29      0.000      0.000      0.300      0.000 
      30      0.000      0.000      0.300      0.000 
      31      0.000      0.000      0.300      0.000 
      32      0.000      0.000      0.300      0.000 
      33      0.000      0.000      0.300      0.000 
      34      0.000      0.000      0.300      0.000 
      35      0.000      0.000      0.300      0.000 
      36      0.000      0.000      0.300      0.000 
      37      0.000      0.000      0.300      0.000 
      38      0.000      0.000      0.300      0.000 
      39      0.000      0.000      0.300      0.000 
      40      0.000      0.000      0.300      0.000 
      41      0.000      0.000      0.300      0.000 
      42      0.000      0.000      0.300      0.000 
      43      0.000      0.000      0.300      0.000 
      44      0.000      0.000      0.300      0.000 
      45      0.000      0.000      0.300      0.000 
      46      0.000      0.000      0.300      0.000 
      47      0.000      0.000      0.300      0.000 
      48      0.000      0.000      0.300      0.000 
      49      0.000      0.000      0.300      0.000 
      50      0.000      0.000      0.300      0.000 
      51      0.000      0.000      0.300      0.000 
      52      0.000      0.000      0.300      0.000 
      53      0.000      0.000      0.300      0.000 
      54      0.000      0.000      0.300      0.000 
      55      0.000      0.000      0.300      0.000 
      56      0.000      0.000      0.300      0.000 
      57      0.000      0.000      0.300      0.000 
      58      0.000      0.000      0.300      0.000 
      59      0.000      0.000      0.300      0.000 
      60      0.000      0.000      0.300      0.000 
      61      0.000      0.000      0.300      0.000 
      62      0.000      0.000      0.300      0.000 
      63      0.000      0.000      0.300      0.000 
      64      0.000      0.000      0.300      0.000 
      65      0.000      0.000      0.300      0.000 
      66      0.000      0.000      0.300      0.000 
      67      0.000      0.000      0.300      0.000 
      68      0.000      0.000      0.300      0.000 
      69      0.000      0.000      0.300      0.000 
      70      0.000      0.000      0.300      0.000 
      71      0.000      0.000      0.300      0.000 
      72      0.000      0.000      0.300      0.000 
      73      0.000      0.000      0.300      0.000 
      74      0.000      0.000      0.300      0.000 
      75      0.000      0.000      0.300      0.000 
      76      0.000      0.000      0.300      0.000 
      77      0.000      0.000      0.300      0.000 
      78      0.000      0.000      0.300      0.000 
      79      0.000      0.000      0.300      0.000 
      80      0.000      0.000      0.300      0.000 
      81      0.000      0.000      0.300      0.000 
      82      0.000      0.000      0.300      0.000 
      83      0.000      0.000      0.300      0.000 
      84      0.000      0.000      0.300      0.000 
      85      0.000      0.000      0.300      0.000 
      86      0.000      0.000      0.300      0.000 
      87      0.000      0.000      0.300      0.000 
      88      0.000      0.000      0.300      0.000 
      89      0.000      0.000      0.300      0.000 
      90      0.000      0.000      0.300      0.000 
      91      0.000      0.000      0.300      0.000 
      92      0.000      0.000      0.300      0.000 
      93      0.000      0.000      0.300      0.000 
      94      0.000      0.000      0.300      0.000 
      95      0.000      0.000      0.300      0.000 
      96      0.000      0.000      0.300      0.000 
      97      0.000      0.000      0.300      0.000 
      98      0.000      0.000      0.300      0.000 
      99      0.000      0.000      0.300      0.000 
     100      0.000      0.000      0.300      0.000 
     101      0.000      0.000      0.300      0.000 
     102      0.000      0.000      0.300      0.000 
     103      0.000      0.000      0.300      0.000 
     104      0.000      0.000      0.300      0.000 
     105      0.000      0.000      0.300      0.000 
     106      0.000      0.000      0.300      0.000 
     107      0.000      0.000      0.300      0.000 
     108      0.000      0.000      0.300      0.000 
     109      0.000      0.000      0.300      0.000 
     110      0.000      0.000      0.300      0.000 
     111      0.000      0.000      0.300      0.000 
     112      0.000      0.000      0.300      0.000 
     113      0.000      0.000      0.300      0.000 
     114      0.000      0.000      0.300      0.000 
     115      0.000      0.000      0.300      0.000 
     116      0.000      0.000      0.300      0.000 
     117      0.000      0.000      0.300      0.000 

Improper Coeffs 

       1      0.000      -1       2 
       2      0.000      -1       2 
       3      0.000      -1       2 
       4      0.000      -1       2 
       5      0.000      -1       2 
       6      0.000      -1       2 
       7      0.000      -1       2 
       8      0.000      -1       2 
       9      0.000      -1       2 
      10      0.000      -1       2 
      11      0.000      -1       2 
      12      0.000      -1       2 
      13      0.000      -1       2 
      14      0.000      -1       2 
      15      0.000      -1       2 
      16      0.000      -1       2 
      17      0.000      -1       2 
      18      0.000      -1       2 
      19      0.000      -1       2 
      20      0.000      -1       2 
      21      0.000      -1       2 
      22      0.000      -1       2 
      23      0.000      -1       2 
      24      0.000      -1       2 
      25      0.000      -1       2 
      26      0.000      -1       2 
      27      0.000      -1       2 
      28      0.000      -1       2 

Atoms 

     1      1      1 -0.23890000    1.000  1.00000  0.00000
     2      1      2 -0.17930000   -0.520  1.00000  0.00000
     3      1      3 -0.17850000   -1.073  1.00000  1.42332
     4      1      4 -0.17920000   -2.601  0.99820  1.42332
     5      1      5 -0.17940000   -3.147  0.99641  2.85010
     6      1      6 -0.17900000   -4.674  0.99280  2.85665
     7      1      7 -0.17920000   -5.213  0.99283  4.28547
     8      1      8 -0.17910000   -6.740  0.98742  4.29528
     9      1      9 -0.17900000   -7.280  0.98925  5.72416
    10      1     10 -0.17920000   -8.807  0.98204  5.73235
    11      1     11 -0.17930000   -9.351  0.98564  7.16000
    12      1     12 -0.17850000  -10.879  0.98021  7.16327
    13      1     13 -0.17920000  -11.429  0.98198  8.58790
    14      1     14 -0.23880000  -12.949  0.97837  8.59115
    15      1     15 0.08070000    1.379  1.00130 -1.02666
    16      1     16 0.08070000    1.391  0.11165  0.50632
    17      1     17 0.08070000    1.391  1.88704  0.50854
    18      1     18 0.08830000   -0.880  0.11624 -0.53982
    19      1     19 0.08830000   -0.881  1.88274 -0.54062
    20      1     20 0.08950000   -0.707  1.88387  1.96012
    21      1     21 0.08950000   -0.705  0.11752  1.96091
    22      1     22 0.08940000   -2.969  0.11473  0.88722
    23      1     23 0.08940000   -2.971  1.88161  0.88867
    24      1     24 0.08940000   -2.779  1.88013  3.38555
    25      1     25 0.08940000   -2.775  0.11379  3.38508
    26      1     26 0.08960000   -5.042  0.10770  2.32347
    27      1     27 0.08960000   -5.046  1.87520  2.32185
    28      1     28 0.08950000   -4.844  1.87801  4.81788
    29      1     29 0.08950000   -4.838  0.11171  4.82029
    30      1     30 0.08950000   -7.108  0.10159  3.76338
    31      1     31 0.08950000   -7.115  1.86781  3.75875
    32      1     32 0.08950000   -6.912  1.87572  6.25502
    33      1     33 0.08950000   -6.905  0.10883  6.26015
    34      1     34 0.08940000   -9.172  0.09455  5.20136
    35      1     35 0.08940000   -9.181  1.86143  5.19369
    36      1     36 0.08930000   -8.983  1.87139  7.69165
    37      1     37 0.08930000   -8.978  0.10451  7.69716
    38      1     38 0.08940000  -11.244  0.09472  6.62855
    39      1     39 0.08940000  -11.249  1.86079  6.62362
    40      1     40 0.08840000  -11.070  1.86772  9.12433
    41      1     41 0.08840000  -11.064  0.10085  9.12856
    42      1     42 0.08070000  -13.343  1.86342  8.08149
    43      1     43 0.08070000  -13.326  0.98099  9.61860
    44      1     44 0.08070000  -13.338  0.08895  8.08517

Bonds 

     1      1      2      1
     2      2      3      2
     3      3      4      3
     4      4      5      4
     5      5      6      5
     6      6      7      6
     7      7      8      7
     8      8      9      8
     9      9     10      9
    10     10     11     10
    11     11     12     11
    12     12     13     12
    13     13     14     13
    14     14     15      1
    15     15     16      1
    16     16     17      1
    17     17     18      2
    18     18     19      2
    19     19     20      3
    20     20     21      3
    21     21     22      4
    22     22     23      4
    23     23     24      5
    24     24     25      5
    25     25     26      6
    26     26     27      6
    27     27     28      7
    28     28     29      7
    29     29     30      8
    30     30     31      8
    31     31     32      9
    32     32     33      9
    33     33     34     10
    34     34     35     10
    35     35     36     11
    36     36     37     11
    37     37     38     12
    38     38     39     12
    39     39     40     13
    40     40     41     13
    41     41     42     14
    42     42     43     14
    43     43     44     14

Angles 

     1      1      1      2      3
     2      2      2      3      4
     3      3      3      4      5
     4      4      4      5      6
     5      5      5      6      7
     6      6      6      7      8
     7      7      7      8      9
     8      8      8      9     10
     9      9      9     10     11
    10     10     10     11     12
    11     11     11     12     13
    12     12     12     13     14
    13     13      2      1     15
    14     14      2      1     16
    15     15      2      1     17
    16     16      1      2     18
    17     17      1      2     19
    18     18      2      3     20
    19     19      2      3     21
    20     20      3      4     22
    21     21      3      4     23
    22     22      4      5     24
    23     23      4      5     25
    24     24      5      6     26
    25     25      5      6     27
    26     26      6      7     28
    27     27      6      7     29
    28     28      7      8     30
    29     29      7      8     31
    30     30      8      9     32
    31     31      8      9     33
    32     32      9     10     34
    33     33      9     10     35
    34     34     10     11     36
    35     35     10     11     37
    36     36     11     12     38
    37     37     11     12     39
    38     38     12     13     40
    39     39     12     13     41
    40     40     13     14     42
    41     41     13     14     43
    42     42     13     14     44
    43     43      9      8     30
    44     44     18      2     19
    45     45     24      5     25
    46     46     14     13     41
    47     47      6      5     24
    48     48     12     11     37
    49     49      3      2     18
    50     50     15      1     16
    51     51     40     13     41
    52     52      7      6     27
    53     53     13     12     39
    54     54     11     10     34
    55     55     43     14     44
    56     56     12     11     36
    57     57     16      1     17
    58     58     13     12     38
    59     59     42     14     43
    60     60      5      4     23
    61     61      7      6     26
    62     62     26      6     27
    63     63      8      7     29
    64     64     42     14     44
    65     65      8      7     28
    66     66     11     10     35
    67     67      5      4     22
    68     68     38     12     39
    69     69     28      7     29
    70     70     34     10     35
    71     71      3      2     19
    72     72     36     11     37
    73     73      4      3     21
    74     74     22      4     23
    75     75     15      1     17
    76     76     10      9     33
    77     77     14     13     40
    78     78     30      8     31
    79     79      6      5     25
    80     80     32      9     33
    81     81      9      8     31
    82     82      4      3     20
    83     83     10      9     32
    84     84     20      3     21

Dihedrals

     1      1      4      3      2      1 
     2      2      5      4      3      2 
     3      3      6      5      4      3 
     4      4      7      6      5      4 
     5      5      8      7      6      5 
     6      6      9      8      7      6 
     7      7     10      9      8      7 
     8      8     11     10      9      8 
     9      9     12     11     10      9 
    10     10     13     12     11     10 
    11     11     14     13     12     11 
    12     12     15      1      2      3 
    13     13     42     14     13     12 
    14     14     23      4      3     21 
    15     15     31      8      7     29 
    16     16     35     10     11     12 
    17     17     35     10      9      8 
    18     18     40     13     12     39 
    19     19     41     13     12     38 
    20     20     28      7      8      9 
    21     21     36     11     12     13 
    22     22     25      5      4      3 
    23     23     39     12     11     10 
    24     24     31      8      7      6 
    25     25     28      7      6     26 
    26     26     32      9     10     11 
    27     27     37     11     10     35 
    28     28     41     13     12     39 
    29     29     44     14     13     41 
    30     30     39     12     13     14 
    31     31     25      5      4     23 
    32     32     43     14     13     41 
    33     33     20      3      2     19 
    34     34     21      3      2     18 
    35     35     44     14     13     40 
    36     36     34     10     11     12 
    37     37     25      5      6      7 
    38     38     37     11     10      9 
    39     39     29      7      8      9 
    40     40     33      9      8      7 
    41     41     30      8      9     10 
    42     42     27      6      5     24 
    43     43     28      7      6      5 
    44     44     34     10      9     32 
    45     45     30      8      7     28 
    46     46     18      2      1     15 
    47     47     29      7      6     26 
    48     48     28      7      6     27 
    49     49     30      8      7      6 
    50     50     44     14     13     12 
    51     51     38     12     11     36 
    52     52     26      6      5      4 
    53     53     23      4      5      6 
    54     54     35     10      9     33 
    55     55     41     13     12     11 
    56     56     38     12     11     10 
    57     57     20      3      2     18 
    58     58     22      4      3     20 
    59     59     38     12     13     14 
    60     60     37     11     12     13 
    61     61     27      6      5     25 
    62     62     19      2      1     16 
    63     63     39     12     11     37 
    64     64     40     13     12     38 
    65     65     42     14     13     41 
    66     66     35     10      9     32 
    67     67     34     10      9     33 
    68     68     43     14     13     40 
    69     69     24      5      4     23 
    70     70     25      5      4     22 
    71     71     43     14     13     12 
    72     72     22      4      3      2 
    73     73     20      3      4      5 
    74     74     32      9      8     30 
    75     75     24      5      6      7 
    76     76     27      6      5      4 
    77     77     23      4      3      2 
    78     78     18      2      1     17 
    79     79     34     10      9      8 
    80     80     26      6      5     24 
    81     81     39     12     11     36 
    82     82     38     12     11     37 
    83     83     21      3      2     19 
    84     84     21      3      4      5 
    85     85     31      8      9     10 
    86     86     33      9     10     11 
    87     87     24      5      4      3 
    88     88     37     11     10     34 
    89     89     36     11     10     35 
    90     90     32      9      8      7 
    91     91     27      6      7      8 
    92     92     17      1      2      3 
    93     93     31      8      7     28 
    94     94     30      8      7     29 
    95     95     24      5      4     22 
    96     96     19      2      3      4 
    97     97     40     13     12     11 
    98     98     26      6      7      8 
    99     99     29      7      6      5 
   100    100     36     11     10     34 
   101    101     32      9      8     31 
   102    102     33      9      8     30 
   103    103     23      4      3     20 
   104    104     22      4      3     21 
   105    105     36     11     10      9 
   106    106     18      2      3      4 
   107    107     19      2      1     17 
   108    108     21      3      2      1 
   109    109     22      4      5      6 
   110    110     33      9      8     31 
   111    111     16      1      2      3 
   112    112     26      6      5     25 
   113    113     29      7      6     27 
   114    114     20      3      2      1 
   115    115     18      2      1     16 
   116    116     42     14     13     40 
   117    117     19      2      1     15 

Impropers

     1      1      1      2     15     16 
     2      2      1     17     15      2 
     3      3      2      1     18      3 
     4      4      2      1     19      3 
     5      5      3      4      2     20 
     6      6      3      2      4     21 
     7      7      4      3      5     22 
     8      8      4      3      5     23 
     9      9      5      4      6     24 
    10     10      5     25      4      6 
    11     11      6     26      5      7 
    12     12      6     27      5      7 
    13     13      7     28      6      8 
    14     14      7     29      6      8 
    15     15      8      9     30      7 
    16     16      8      9      7     31 
    17     17      9     10      8     32 
    18     18      9     33     10      8 
    19     19     10      9     34     11 
    20     20     10      9     35     11 
    21     21     11     12     10     36 
    22     22     11     10     12     37 
    23     23     12     11     13     38 
    24     24     12     11     13     39 
    25     25     13     12     14     40 
    26     26     13     41     12     14 
    27     27     14     42     43     13 
    28     28     14     42     44     13 

