#C12: DodecaneThiolate

38 atoms
3 atom types

37 bonds
3 bond types

72 angles
5 angle types

99 dihedrals
4 dihedral types

24 impropers
1 improper types

-0.889866902265106  0.891467764470588  xlo xhi
-1.4340982439542  1.44712387667101  ylo yhi
-1.41244628288574  14.7490709914598  zlo zhi

Masses

1  12.011
2  32.06
3  1.008

Pair Coeffs

1  0.066  3.5
2  0.355  3.55
3  0.03  2.5

Bond Coeffs

1  268.0  1.529
2  340.0  1.77
3  340.0  1.09

Angle Coeffs

1  58.35  112.7
2  50.0  108.6
3  37.5  110.7
4  35.0  109.5
5  33.0  107.8

Dihedral Coeffs

1  1.3  -0.2  0.2  0.0
2  1.262  -0.198  0.465  0.0
3  0.0  0.0  0.3  0.0
4  0.0  0.0  0.452  0.0

Improper Coeffs

1  0.0  -1.0  2.0

Atoms # full

1  1  1  -0.2089   3.63813738763656e-17    1.5525134065167e-14    13.8959032369004 
2  1  1  -0.1576  -0.00164251797399563   -0.781965955587803    12.5924744715142 
3  1  1  -0.1566   0.00282693259673985    0.153224800522289    11.3842038577037 
4  1  1  -0.1573  -0.000625298349343052   -0.633364719548846    10.0730557924511 
5  1  1  -0.1573   0.0020617940715999    0.307603253964103    8.86831842905722 
6  1  1  -0.1573  -0.00317290455316683   -0.47476080992781    7.55463763226492 
7  1  1  -0.1576   0.00133186833048417    0.468815874265079    6.35183139971173 
8  1  1  -0.158  -0.00209703841435839   -0.312156942148279    5.03731367631583 
9  1  1  -0.1565   0.00421700974741629    0.631241706452047    3.83461197268567 
10  1  1  -0.1683  -0.00102076825150286   -0.149201550363853    2.52094498510007 
11  1  1  -0.1505   0.00348518936399227    0.7933892746125    1.31289942241778 
12  1  1  -0.0858   0    0    0 
13  1  2  -0.8979   0.00773981094932332    1.16666255784983   -1.41244628288574 
14  1  3   0.0684  -0.00194634170642346   -0.685400933712625    14.7490709914598 
15  1  3   0.0684  -0.886088425751895    0.638515172093541    13.9699220801426 
16  1  3   0.0684   0.889843621910598    0.633151085436117    13.9709022126009 
17  1  3   0.0764  -0.886880968287714   -1.42767252861735    12.5611529113263 
18  1  3   0.0764   0.879076590395686   -1.4340982439542    12.5627825159956 
19  1  3   0.0777   0.888618058503071    0.798946111042261    11.4236789651256 
20  1  3   0.0777  -0.87763702872995    0.80622179019843    11.4227059716562 
21  1  3   0.0769  -0.885968920034223   -1.27968791274895    10.033941208553 
22  1  3   0.0769   0.880141639775503   -1.28589967967081    10.0331099563124 
23  1  3   0.0772   0.888051364096454    0.953203734984583    8.90903193066664 
24  1  3   0.0772  -0.878367151507264    0.960162600379674    8.91058151924919 
25  1  3   0.0759  -0.889866902265106   -1.11876381178725    7.51413279776771 
26  1  3   0.0759   0.876229626064163   -1.12911719395555    7.51228777717689 
27  1  3   0.0762   0.887805464891911    1.1132311641408    6.39442147806146 
28  1  3   0.0762  -0.879057433620017    1.12128932509986    6.3941459712783 
29  1  3   0.0731  -0.889218006344216   -0.955429506716221    4.99637116865723 
30  1  3   0.0731   0.877635799433584   -0.965931520981698    4.99694667267188 
31  1  3   0.0743   0.891467764470588    1.27522536899645    3.8786261728836 
32  1  3   0.0743  -0.874844691886432    1.28605128869653    3.87785566611499 
33  1  3   0.0641  -0.888393751870095   -0.792704796718478    2.48130734295405 
34  1  3   0.0641   0.879093776219744   -0.802565895042156    2.48033138869122 
35  1  3   0.0785   0.890200041986274    1.43900345198277    1.36992996351248 
36  1  3   0.0785  -0.877282602966472    1.44712387667101    1.36961788382784 
37  1  3   0.0319  -0.87858570481778   -0.656964759261742   -0.0129142703241787 
38  1  3   0.0319   0.870959515076015   -0.666838391115294   -0.0115277852737649 

Bonds

1  1  2  1
2  1  3  2
3  1  4  3
4  1  5  4
5  1  6  5
6  1  7  6
7  1  8  7
8  1  9  8
9  1  10  9
10  1  11  10
11  1  12  11
12  2  13  12
13  3  14  1
14  3  15  1
15  3  16  1
16  3  17  2
17  3  18  2
18  3  19  3
19  3  20  3
20  3  21  4
21  3  22  4
22  3  23  5
23  3  24  5
24  3  25  6
25  3  26  6
26  3  27  7
27  3  28  7
28  3  29  8
29  3  30  8
30  3  31  9
31  3  32  9
32  3  33  10
33  3  34  10
34  3  35  11
35  3  36  11
36  3  37  12
37  3  38  12

Angles

1  1  1  2  3
2  1  2  3  4
3  1  3  4  5
4  1  4  5  6
5  1  5  6  7
6  1  6  7  8
7  1  7  8  9
8  1  8  9  10
9  1  9  10  11
10  1  10  11  12
11  2  11  12  13
12  3  2  1  14
13  3  2  1  15
14  3  2  1  16
15  3  1  2  17
16  3  1  2  18
17  3  2  3  19
18  3  2  3  20
19  3  3  4  21
20  3  3  4  22
21  3  4  5  23
22  3  4  5  24
23  3  5  6  25
24  3  5  6  26
25  3  6  7  27
26  3  6  7  28
27  3  7  8  29
28  3  7  8  30
29  3  8  9  31
30  3  8  9  32
31  3  9  10  33
32  3  9  10  34
33  3  10  11  35
34  3  10  11  36
35  3  11  12  37
36  3  11  12  38
37  3  8  7  28
38  3  8  7  27
39  3  6  5  24
40  3  9  8  30
41  4  13  12  37
42  3  3  2  18
43  5  29  8  30
44  5  27  7  28
45  5  37  12  38
46  3  9  8  29
47  3  3  2  17
48  3  7  6  25
49  5  23  5  24
50  3  4  3  19
51  3  12  11  36
52  5  21  4  22
53  5  15  1  16
54  3  7  6  26
55  4  13  12  38
56  3  5  4  22
57  5  14  1  15
58  3  10  9  31
59  5  17  2  18
60  5  25  6  26
61  5  19  3  20
62  3  11  10  34
63  5  33  10  34
64  5  31  9  32
65  3  6  5  23
66  5  14  1  16
67  3  5  4  21
68  3  4  3  20
69  5  35  11  36
70  3  11  10  33
71  3  10  9  32
72  3  12  11  35

Dihedrals

1  1  4  3  2  1
2  1  5  4  3  2
3  1  6  5  4  3
4  1  7  6  5  4
5  1  8  7  6  5
6  1  9  8  7  6
7  1  10  9  8  7
8  1  11  10  9  8
9  1  12  11  10  9
10  2  13  12  11  10
11  3  14  1  2  3
12  3  35  11  10  33
13  3  28  7  8  9
14  4  36  11  12  13
15  3  28  7  6  25
16  3  27  7  6  26
17  3  28  7  6  26
18  3  32  9  10  11
19  3  34  10  9  31
20  3  33  10  9  32
21  3  36  11  10  33
22  3  34  10  11  12
23  3  30  8  9  10
24  3  28  7  6  5
25  3  25  6  7  8
26  3  34  10  9  32
27  3  23  5  6  7
28  3  30  8  7  28
29  3  29  8  7  27
30  3  18  2  1  15
31  3  17  2  3  4
32  3  30  8  7  27
33  3  29  8  7  28
34  3  27  7  8  9
35  3  30  8  7  6
36  3  35  11  10  9
37  3  19  3  2  1
38  3  37  12  11  10
39  3  25  6  5  23
40  3  38  12  11  36
41  3  26  6  5  4
42  3  20  3  2  1
43  3  21  4  3  19
44  3  20  3  2  18
45  3  22  4  3  20
46  3  18  2  1  14
47  3  17  2  1  15
48  3  17  2  1  16
49  3  23  5  4  21
50  3  22  4  3  2
51  3  20  3  4  5
52  3  32  9  8  30
53  3  35  11  10  34
54  3  24  5  6  7
55  3  23  5  4  3
56  3  37  12  11  35
57  3  21  4  3  2
58  3  34  10  9  8
59  3  31  9  10  11
60  3  29  8  9  10
61  3  26  6  5  24
62  3  33  10  9  31
63  3  33  10  9  8
64  3  24  5  4  3
65  3  26  6  5  23
66  3  25  6  5  24
67  3  24  5  4  22
68  3  27  7  6  25
69  3  32  9  8  7
70  3  31  9  8  29
71  3  15  1  2  3
72  3  27  7  6  5
73  3  25  6  5  4
74  3  37  12  11  36
75  3  33  10  11  12
76  3  21  4  3  20
77  3  22  4  3  19
78  3  29  8  7  6
79  3  26  6  7  8
80  3  20  3  2  17
81  3  19  3  2  18
82  3  36  11  10  34
83  3  19  3  2  17
84  3  21  4  5  6
85  3  31  9  8  7
86  3  19  3  4  5
87  3  36  11  10  9
88  3  18  2  3  4
89  3  38  12  11  10
90  3  24  5  4  21
91  3  23  5  4  22
92  4  35  11  12  13
93  3  22  4  5  6
94  3  31  9  8  30
95  3  32  9  8  29
96  3  16  1  2  3
97  3  38  12  11  35
98  3  17  2  1  14
99  3  18  2  1  16

Impropers

1  1  1  2  14  15
2  1  1  2  14  16
3  1  2  17  3  1
4  1  2  1  18  3
5  1  3  2  19  4
6  1  3  4  2  20
7  1  4  5  3  21
8  1  4  3  5  22
9  1  5  4  6  23
10  1  5  4  6  24
11  1  6  25  5  7
12  1  6  26  5  7
13  1  7  27  6  8
14  1  7  28  6  8
15  1  8  9  29  7
16  1  8  9  30  7
17  1  9  10  31  8
18  1  9  10  8  32
19  1  10  33  11  9
20  1  10  9  34  11
21  1  11  10  35  12
22  1  11  12  10  36
23  1  12  13  11  37
24  1  12  11  13  38
