#C6

20 atoms
2 atom types

19 bonds
2 bond types

36 angles
3 angle types

45 dihedrals
2 dihedral types

12 impropers
1 improper types

-0.891590821060293  0.88487516258527  xlo xhi
-0.622205766663853  2.02775593021825  ylo yhi
0.0411023396203488  7.99391400910247  zlo zhi

Masses

1  12.011
2  1.008

Pair Coeffs

1  0.066  3.5
2  0.03  2.5

Bond Coeffs

1  268.0  1.529
2  340.0  1.09

Angle Coeffs

1  58.35  112.7
2  37.5  110.7
3  33.0  107.8

Dihedral Coeffs

1  1.3  -0.2  0.2  0.0
2  0.0  0.0  0.3  0.0

Improper Coeffs

1  0.0  -1.0  2.0

Atoms # full

1  1  1  -0.2388  -0.00182369863370169    0.703286636622468    0.838597498965713 
2  1  1  -0.1794  -0.000150787224154564    0.023416509042253    2.19807306365655 
3  1  1  -0.1785  -0.000880940972755658    1.0460239265649    3.33448293892303 
4  1  1  -0.1784  -0.000995011513264263    0.359183295855442    4.70053747630231 
5  1  1  -0.1792   7.49273952743823e-05    1.38170368253018    5.83690161255675 
6  1  1  -0.2387  -0.00182369863370168    0.703286636622454    7.19710825452004 
7  1  2   0.0807   3.14351744960307e-05   -0.046286050779671    0.0411023396203488 
8  1  2   0.0807   0.88487516258527    1.33328342665058    0.715397512897325 
9  1  2   0.0807  -0.891590821060293    1.32887633819456    0.715379581292836 
10  1  2   0.0881   0.884134933555248   -0.619850909025332    2.27667864474539 
11  1  2   0.0881  -0.88260321611684   -0.622205766663853    2.27767505768603 
12  1  2   0.0891  -0.884542413184744    1.68998156683755    3.24727714231167 
13  1  2   0.0891   0.881657253683906    1.69149488674898    3.24697861942275 
14  1  2   0.0891   0.881458731218875   -0.28692250291983    4.78667047071796 
15  1  2   0.0891  -0.884334495031276   -0.285662573407173    4.78723730994157 
16  1  2   0.0881  -0.881965619837602    2.02775593021825    5.75633171995218 
17  1  2   0.0881   0.884340582400777    2.02486871607422    5.75718660516178 
18  1  2   0.0807  -0.890576990319591    0.0762924336926779    7.31957619812141 
19  1  2   0.0807  -0.0023203694120323    1.45371984669678    7.99391400910247 
20  1  2   0.0807   0.884680265276285    0.0730056868405961    7.32133834151171 

Bonds

1  1  2  1
2  1  3  2
3  1  4  3
4  1  5  4
5  1  6  5
6  2  7  1
7  2  8  1
8  2  9  1
9  2  10  2
10  2  11  2
11  2  12  3
12  2  13  3
13  2  14  4
14  2  15  4
15  2  16  5
16  2  17  5
17  2  18  6
18  2  19  6
19  2  20  6

Angles

1  1  1  2  3
2  1  2  3  4
3  1  3  4  5
4  1  4  5  6
5  2  2  1  7
6  2  2  1  8
7  2  2  1  9
8  2  1  2  10
9  2  1  2  11
10  2  2  3  12
11  2  2  3  13
12  2  3  4  14
13  2  3  4  15
14  2  4  5  16
15  2  4  5  17
16  2  5  6  18
17  2  5  6  19
18  2  5  6  20
19  2  5  4  14
20  3  18  6  19
21  3  14  4  15
22  2  6  5  17
23  3  16  5  17
24  3  8  1  9
25  2  3  2  11
26  3  10  2  11
27  2  5  4  15
28  3  7  1  9
29  3  19  6  20
30  2  6  5  16
31  3  12  3  13
32  2  4  3  12
33  3  7  1  8
34  2  4  3  13
35  3  18  6  20
36  2  3  2  10

Dihedrals

1  1  4  3  2  1
2  1  5  4  3  2
3  1  6  5  4  3
4  2  7  1  2  3
5  2  18  6  5  4
6  2  19  6  5  17
7  2  19  6  5  4
8  2  14  4  3  2
9  2  14  4  3  12
10  2  20  6  5  4
11  2  9  1  2  3
12  2  16  5  4  15
13  2  17  5  4  14
14  2  14  4  3  13
15  2  15  4  3  12
16  2  18  6  5  16
17  2  20  6  5  16
18  2  13  3  2  10
19  2  12  3  2  1
20  2  16  5  4  14
21  2  15  4  3  2
22  2  13  3  4  5
23  2  12  3  4  5
24  2  13  3  2  11
25  2  15  4  3  13
26  2  10  2  1  7
27  2  8  1  2  3
28  2  12  3  2  10
29  2  10  2  1  9
30  2  11  2  1  8
31  2  16  5  4  3
32  2  18  6  5  17
33  2  19  6  5  16
34  2  20  6  5  17
35  2  17  5  4  15
36  2  12  3  2  11
37  2  11  2  1  7
38  2  10  2  1  8
39  2  11  2  3  4
40  2  13  3  2  1
41  2  15  4  5  6
42  2  10  2  3  4
43  2  11  2  1  9
44  2  17  5  4  3
45  2  14  4  5  6

Impropers

1  1  1  2  7  8
2  1  1  9  7  2
3  1  2  1  10  3
4  1  2  1  11  3
5  1  3  4  2  12
6  1  3  2  4  13
7  1  4  3  5  14
8  1  4  3  5  15
9  1  5  4  6  16
10  1  5  17  4  6
11  1  6  18  19  5
12  1  6  18  20  5
