#C6: Hexanoate

19 atoms
4 atom types

18 bonds
4 bond types

33 angles
7 angle types

42 dihedrals
5 dihedral types

11 impropers
2 improper types

-0.891181446175312  0.888352518043633  xlo xhi
-1.33993259276315  1.26450359958522  ylo yhi
-0.937557524993972  7.21267354878121  zlo zhi

Masses

1  12.011
2  12.011
3  15.999
4  1.008

Pair Coeffs

1  0.066  3.5
2  0.07  3.55
3  0.21  2.96
4  0.03  2.5

Bond Coeffs

1  268.0  1.529
2  317.0  1.522
3  656.0  1.25
4  340.0  1.09

Angle Coeffs

1  58.35  112.7
2  63.0  111.1
3  70.0  117.0
4  37.5  110.7
5  33.0  107.8
6  35.0  109.5
7  80.0  126.0

Dihedral Coeffs

1  1.3  -0.2  0.2  0.0
2  -2.06  -0.313  0.315  0.0
3  0.0  0.0  0.0  0.0
4  0.0  0.0  0.3  0.0
5  0.0  0.0  -0.1  0.0

Improper Coeffs

1  10.5  -1.0  2.0
2  0.0  -1.0  2.0

Atoms # full

1  1  1  -0.2072  -1.13856194972009e-18    1.55801448573951e-15    6.40912345377275 
2  1  1  -0.1581   0.0031898150346969   -0.690788851994956    5.05516607370515 
3  1  1  -0.1606   0.000185541159474376    0.320296797667789    3.90838235574236 
4  1  1  -0.1361   0.00162323836529625   -0.383362639896491    2.55088370327399 
5  1  1  -0.2329   0.000429787568363516    0.619479883022662    1.40157408324101 
6  1  2   0.4284   0    0    0 
7  1  3  -0.6313   0.000655918640423192   -1.25976390252903   -0.0611592720326305 
8  1  3  -0.6313   0.000471496116883136    0.849658231301615   -0.937557524993972 
9  1  4   0.0593   0.00352930130627171   -0.74321020394246    7.21267354878121 
10  1  4   0.0593  -0.891181446175312    0.624582542569776    6.52731228365933 
11  1  4   0.0593   0.884888882265667    0.633194369775899    6.52822544505218 
12  1  4   0.0735  -0.877206068584511   -1.33993259276315    4.98125899063575 
13  1  4   0.0735   0.888352518043633   -1.33365670499285    4.98221654811522 
14  1  4   0.0647   0.881983516604149    0.967905436055003    3.98868912624107 
15  1  4   0.0647  -0.884911494741684    0.963210701649238    3.9891669861266 
16  1  4   0.0789  -0.879441445074825   -1.03250913659706    2.47473118055847 
17  1  4   0.0789   0.88469023434956   -1.02983741453901    2.47527895108049 
18  1  4   0.0586   0.884398105205304    1.26450359958522    1.47983688849322 
19  1  4   0.0586  -0.884190243382325    1.26348204569519    1.48068197294807 

Bonds

1  1  2  1
2  1  3  2
3  1  4  3
4  1  5  4
5  2  6  5
6  3  7  6
7  3  8  6
8  4  9  1
9  4  10  1
10  4  11  1
11  4  12  2
12  4  13  2
13  4  14  3
14  4  15  3
15  4  16  4
16  4  17  4
17  4  18  5
18  4  19  5

Angles

1  1  1  2  3
2  1  2  3  4
3  1  3  4  5
4  2  4  5  6
5  3  5  6  7
6  3  5  6  8
7  4  2  1  9
8  4  2  1  10
9  4  2  1  11
10  4  1  2  12
11  4  1  2  13
12  4  2  3  14
13  4  2  3  15
14  4  3  4  16
15  4  3  4  17
16  4  4  5  18
17  4  4  5  19
18  5  12  2  13
19  6  6  5  19
20  4  5  4  16
21  5  18  5  19
22  5  16  4  17
23  5  14  3  15
24  7  7  6  8
25  4  3  2  12
26  5  10  1  11
27  4  3  2  13
28  5  9  1  10
29  5  9  1  11
30  4  4  3  14
31  4  4  3  15
32  6  6  5  18
33  4  5  4  17

Dihedrals

1  1  4  3  2  1
2  1  5  4  3  2
3  2  6  5  4  3
4  3  7  6  5  4
5  4  9  1  2  3
6  4  15  3  4  5
7  4  14  3  4  5
8  4  17  4  3  2
9  4  15  3  2  1
10  3  18  5  6  7
11  4  11  1  2  3
12  4  17  4  3  14
13  5  17  4  5  6
14  4  18  5  4  17
15  4  19  5  4  16
16  4  14  3  2  13
17  4  15  3  2  12
18  4  19  5  4  17
19  3  8  6  5  4
20  3  19  5  6  7
21  4  19  5  4  3
22  3  19  5  6  8
23  4  14  3  2  12
24  4  12  2  3  4
25  4  16  4  3  2
26  4  17  4  3  15
27  4  13  2  3  4
28  4  16  4  3  14
29  4  12  2  1  11
30  4  13  2  1  10
31  4  13  2  1  11
32  4  15  3  2  13
33  4  10  1  2  3
34  4  18  5  4  16
35  4  16  4  3  15
36  4  13  2  1  9
37  4  12  2  1  10
38  4  14  3  2  1
39  4  18  5  4  3
40  3  18  5  6  8
41  4  12  2  1  9
42  5  16  4  5  6

Impropers

1  1  6  5  7  8
2  2  1  10  9  2
3  2  1  2  11  9
4  2  2  1  3  12
5  2  2  1  3  13
6  2  3  2  4  14
7  2  3  2  4  15
8  2  4  3  5  16
9  2  4  17  3  5
10  2  5  18  4  6
11  2  5  19  4  6
