#C6_acid

20 atoms
6 atom types

19 bonds
6 bond types

34 angles
9 angle types

44 dihedrals
8 dihedral types

11 impropers
2 improper types

-0.893977726429552  0.892269285990203  xlo xhi
-1.31800676881159  1.82076515780873  ylo yhi
-1.02026046809696  7.14638947685956  zlo zhi

Masses

1  12.011
2  12.011
3  15.999
4  15.999
5  1.008
6  1.008

Pair Coeffs

1  0.066  3.5
2  0.07  3.55
3  0.21  2.96
4  0.17  3.12
5  0.03  2.5
6  0.0  0.0

Bond Coeffs

1  268.0  1.529
2  317.0  1.522
3  570.0  1.229
4  450.0  1.364
5  340.0  1.09
6  553.0  0.945

Angle Coeffs

1  58.35  112.7
2  63.0  111.1
3  80.0  120.4
4  70.0  108.0
5  37.5  110.7
6  35.0  113.0
7  33.0  107.8
8  35.0  109.5
9  80.0  121.0

Dihedral Coeffs

1  1.3  -0.2  0.2  0.0
2  -2.06  -0.313  0.315  0.0
3  0.0  0.0  0.0  0.0
4  0.0  0.0  0.3  0.0
5  1.5  5.5  0.0  0.0
6  0.0  0.0  -0.1  0.0
7  0.0  5.5  0.0  0.0
8  1.0  0.546  0.45  0.0

Improper Coeffs

1  10.5  -1.0  2.0
2  0.0  -1.0  2.0

Atoms # full

1  1  1  -0.2393  -4.86040142805969e-18    5.41540258323065e-15    6.35514137590187 
2  1  1  -0.1783   0.00363699851636126   -0.669718151934409    4.99063986648118 
3  1  1  -0.1789  -0.000116266759631101    0.356861222186732    3.85738169036737 
4  1  1  -0.1704   0.00180713599762702   -0.333033398399772    2.49275289266902 
5  1  1  -0.2607  -0.000116167114075193    0.680769108804152    1.3501752364057 
6  1  2   0.51   0    0    0 
7  1  3  -0.4446   0.00143533227962321   -1.2059578059722   -0.184523758188397 
8  1  4  -0.5603  -0.00011010599785847    0.889428704515007   -1.02026046809696 
9  1  5   0.0822   0.00409038343639245   -0.756444109960665    7.14638947685956 
10  1  5   0.0822  -0.891780522271567    0.621348442959158    6.48446938574231 
11  1  5   0.0822   0.884411179203206    0.631885500476165    6.48403197171238 
12  1  5   0.0926  -0.876619891770488   -1.31800676881159    4.9076858808627 
13  1  5   0.0926   0.889493616708189   -1.31043936679988    4.90867915621672 
14  1  5   0.0881   0.880821070451977    1.00441060655418    3.94515615597016 
15  1  5   0.0881  -0.885280169950168    0.998460605136364    3.94559698828754 
16  1  5   0.1107  -0.877609838590618   -0.98348336988794    2.40863405175274 
17  1  5   0.1107   0.884169562205302   -0.979580681820106    2.40918655244349 
18  1  5   0.1209   0.892269285990203    1.31306859334572    1.41538818171822 
19  1  5   0.1209  -0.893977726429552    1.3107054706854    1.41624274171599 
20  1  6   0.4514  -0.000240553461190106    1.82076515780873   -0.728793881590516 

Bonds

1  1  2  1
2  1  3  2
3  1  4  3
4  1  5  4
5  2  6  5
6  3  7  6
7  4  8  6
8  5  9  1
9  5  10  1
10  5  11  1
11  5  12  2
12  5  13  2
13  5  14  3
14  5  15  3
15  5  16  4
16  5  17  4
17  5  18  5
18  5  19  5
19  6  20  8

Angles

1  1  1  2  3
2  1  2  3  4
3  1  3  4  5
4  2  4  5  6
5  3  5  6  7
6  4  5  6  8
7  5  2  1  9
8  5  2  1  10
9  5  2  1  11
10  5  1  2  12
11  5  1  2  13
12  5  2  3  14
13  5  2  3  15
14  5  3  4  16
15  5  3  4  17
16  5  4  5  18
17  5  4  5  19
18  6  6  8  20
19  7  12  2  13
20  8  6  5  19
21  5  5  4  16
22  7  18  5  19
23  7  16  4  17
24  7  14  3  15
25  9  7  6  8
26  5  3  2  12
27  7  10  1  11
28  5  3  2  13
29  7  9  1  10
30  7  9  1  11
31  5  4  3  14
32  5  4  3  15
33  8  6  5  18
34  5  5  4  17

Dihedrals

1  1  4  3  2  1
2  1  5  4  3  2
3  2  6  5  4  3
4  3  7  6  5  4
5  4  9  1  2  3
6  5  20  8  6  5
7  4  15  3  4  5
8  4  14  3  4  5
9  4  17  4  3  2
10  4  15  3  2  1
11  3  18  5  6  7
12  4  11  1  2  3
13  4  17  4  3  14
14  6  17  4  5  6
15  4  18  5  4  17
16  7  20  8  6  7
17  4  14  3  2  13
18  4  15  3  2  12
19  4  19  5  4  16
20  8  8  6  5  4
21  3  19  5  6  7
22  4  19  5  4  3
23  3  19  5  6  8
24  4  14  3  2  12
25  4  12  2  3  4
26  4  16  4  3  2
27  4  17  4  3  15
28  4  13  2  3  4
29  4  16  4  3  14
30  4  12  2  1  11
31  4  13  2  1  10
32  4  13  2  1  11
33  4  15  3  2  13
34  4  10  1  2  3
35  4  18  5  4  16
36  4  16  4  3  15
37  4  13  2  1  9
38  4  12  2  1  10
39  4  14  3  2  1
40  4  19  5  4  17
41  4  18  5  4  3
42  3  18  5  6  8
43  4  12  2  1  9
44  6  16  4  5  6

Impropers

1  1  6  5  7  8
2  2  1  10  9  2
3  2  1  2  11  9
4  2  2  1  3  12
5  2  2  1  3  13
6  2  3  2  4  14
7  2  3  2  4  15
8  2  4  3  5  16
9  2  4  17  3  5
10  2  5  18  4  6
11  2  5  19  4  6
