#C30

92 atoms
2 atom types

91 bonds
2 bond types

180 angles
3 angle types

261 dihedrals
2 dihedral types

60 impropers
1 improper types

-0.888044281844466  0.898073640508661  xlo xhi
-0.862081952589685  2.11680790159034  ylo yhi
0.0132114166654657  38.0102734941193  zlo zhi

Masses

1  12.011
2  1.008

Pair Coeffs

1  0.066  3.5
2  0.03  2.5

Bond Coeffs

1  268.0  1.529
2  340.0  1.09

Angle Coeffs

1  58.35  112.7
2  37.5  110.7
3  33.0  107.8

Dihedral Coeffs

1  1.3  -0.2  0.2  0.0
2  0.0  0.0  0.3  0.0

Improper Coeffs

1  0.0  -1.0  2.0

Atoms # full

1  1  1  -0.2389   0.00533154624694976    0.629483090213224    0.894828795161523 
2  1  1  -0.1796   0.000625368941266077   -0.207144875388147    2.16265863353451 
3  1  1  -0.1789   0.00633796050523877    0.677867841381515    3.40445325421605 
4  1  1  -0.1795  -0.000180576551852218   -0.160952325660537    4.67562219500959 
5  1  1  -0.1801   0.00382692582772772    0.736773204794637    5.9102241083378 
6  1  1  -0.1799  -0.000874656268663713   -0.0993369641678755    7.18318809372123 
7  1  1  -0.1801   0.00133810511828971    0.801220012746528    8.41126501542354 
8  1  1  -0.1803  -0.00155885394243402   -0.0357024447762226    9.68250156832087 
9  1  1  -0.1803  -0.00114301811997312    0.865516201347555    10.9074141176726 
10  1  1  -0.1805  -0.0022437960542729    0.0264293522847128    12.1760309677963 
11  1  1  -0.1806  -3.04716012090598e-05    0.925583925208707    13.4007862388953 
12  1  1  -0.1806   0.000674983517694178    0.0843409703620761    14.666788891244 
13  1  1  -0.1807   0.00108248165201279    0.984224206135378    15.8908201859908 
14  1  1  -0.1807  -1.58856618236274e-05    0.144085417017113    17.1551485496322 
15  1  1  -0.1807  -0.00141499550451371    1.04457212091937    18.3783732504075 
16  1  1  -0.1807  -0.000706442178036073    0.203879941560295    19.643541255068 
17  1  1  -0.1807  -0.000291705417550802    1.10503165460252    20.866013411264 
18  1  1  -0.1807   0.00221530903360303    0.265689084586829    22.1320786852282 
19  1  1  -0.1805   0.000820183277852367    1.16686845132638    23.3545623716171 
20  1  1  -0.1806   0.00512411855309181    0.326972551628264    24.621467289443 
21  1  1  -0.1806   0.00193460103604156    1.22734498204334    25.845808046637 
22  1  1  -0.1804   0.00805234095385509    0.389599958622514    27.1153371488997 
23  1  1  -0.1802   0.00665456230041595    1.2902453237859    28.3398646638721 
24  1  1  -0.18   0.010956069348798    0.454656466707248    29.6120079667524 
25  1  1  -0.1798   0.00776788776140576    1.3550792188565    30.8399762666324 
26  1  1  -0.1799   0.0102647717741199    0.52030265033809    32.1138470019988 
27  1  1  -0.1797   0.00528253817594093    1.41649676243307    33.3474049781372 
28  1  1  -0.179   0.00599621796716922    0.577900056311762    34.6211444450784 
29  1  1  -0.1795   0.00282775183086507    1.46613802578167    35.8614400797213 
30  1  1  -0.2389   0.00533154624694861    0.629483090213076    37.1292788842632 
31  1  2   0.0807  -0.000142471361503764   -0.0183724430385634    0.0132114166654657 
32  1  2   0.0807   0.898073640508661    1.26176012231271    0.848112785992421 
33  1  2   0.0807  -0.878272458606398    1.2743204574889    0.849807436096093 
34  1  2   0.0884   0.879756694069937   -0.862081952589685    2.16745160591226 
35  1  2   0.0884  -0.886758994201031   -0.851033546903868    2.16698692930316 
36  1  2   0.0895  -0.871231317012311    1.33676778812811    3.3926962548259 
37  1  2   0.0895   0.894470031873819    1.32337064765251    3.39280611281437 
38  1  2   0.0897   0.87970485154443   -0.815834626436087    4.69363332642169 
39  1  2   0.0897  -0.888044281844466   -0.805279632232181    4.69164036376261 
40  1  2   0.0898  -0.875579913334059    1.39131890874404    5.89438885725522 
41  1  2   0.0898   0.890970047450766    1.38095471918769    5.89530516832158 
42  1  2   0.09   0.879807166907421   -0.753197452349025    7.20187646504561 
43  1  2   0.09  -0.886843868754864   -0.746263032381344    7.19989461916625 
44  1  2   0.0901  -0.879744673051054    1.45316345417197    8.39490444710411 
45  1  2   0.0901   0.887075057392476    1.44773023935037    8.39548132850699 
46  1  2   0.0901   0.880215763841428   -0.687407940322297    9.7002198331109 
47  1  2   0.0901  -0.886408271768186   -0.68261033786691    9.69802613370593 
48  1  2   0.0902  -0.884204642565031    1.51599435635692    10.8912773866511 
49  1  2   0.0902   0.882627722986022    1.51435018511714    10.8907603352 
50  1  2   0.0902   0.880184400672039   -0.624595844315885    12.191804360377 
51  1  2   0.0902  -0.886722780779231   -0.622066560533835    12.1917071005319 
52  1  2   0.0902  -0.882537231446995    1.57678496016691    13.3863266989351 
53  1  2   0.0902   0.884349609283035    1.57425571621962    13.3852257992525 
54  1  2   0.0903   0.884562737198078   -0.565048945774553    14.6812505859547 
55  1  2   0.0903  -0.883010321285651   -0.56516969120493    14.6817983477767 
56  1  2   0.0903  -0.882028985542535    1.63472770288075    15.8746999927061 
57  1  2   0.0903   0.88532381576228    1.63309715651627    15.8753919743351 
58  1  2   0.0904   0.88380968521846   -0.505763020513148    17.1717036605535 
59  1  2   0.0904  -0.883694994719156   -0.506034586080683    17.1697559309088 
60  1  2   0.0904  -0.885919280219169    1.69297243838739    18.3620581307701 
61  1  2   0.0904   0.881518395660456    1.69548940322771    18.361892996822 
62  1  2   0.0904   0.883111521230953   -0.445476165408867    19.6580250010421 
63  1  2   0.0904  -0.884231280926769   -0.445556572108679    19.6586002366907 
64  1  2   0.0904  -0.8848252316077    1.75349900554524    20.8509405280974 
65  1  2   0.0904   0.882721291077911    1.75594002484708    20.8483294618837 
66  1  2   0.0903   0.886907321077431   -0.383021278416093    22.1469917955161 
67  1  2   0.0903  -0.880162104934995   -0.385874255222321    22.1481346758495 
68  1  2   0.0904  -0.885074232893337    1.81354125496013    23.3394983436973 
69  1  2   0.0904   0.882430813825541    1.81900392224822    23.3376829678702 
70  1  2   0.0903   0.89222726250383   -0.318196998616909    24.6351315650973 
71  1  2   0.0903  -0.875129147924624   -0.327191023947612    24.6370134061638 
72  1  2   0.0902  -0.88492902106058    1.87254630158197    25.8297694037 
73  1  2   0.0902   0.882586448437612    1.88138912431407    25.8277883760088 
74  1  2   0.0901   0.894759655689987   -0.25650201709092    27.1283846571919 
75  1  2   0.0901  -0.872230351756486   -0.264471625816607    27.1309438604024 
76  1  2   0.09  -0.878727679340395    1.9373739236859    28.3227070918248 
77  1  2   0.09   0.887890898826139    1.94345952667546    28.320101384031 
78  1  2   0.09   0.89697001431977   -0.192092180459357    29.6270223899895 
79  1  2   0.09  -0.869704456160563   -0.19901227469006    29.6266809974426 
80  1  2   0.0899  -0.87770565972964    2.00210804544167    30.8203562956475 
81  1  2   0.0899   0.888994016028697    2.00826009704569    30.8201909582687 
82  1  2   0.0897   0.896290251452368   -0.126145671340057    32.1278615394666 
83  1  2   0.0897  -0.870110894324084   -0.134135789485958    32.126815063643 
84  1  2   0.0897  -0.880661000677839    2.06352843526239    33.3277851407545 
85  1  2   0.0897   0.886946815543334    2.06921617259131    33.330911109067 
86  1  2   0.0896   0.890931944394257   -0.0700524893016394    34.6329642050622 
87  1  2   0.0896  -0.875459849239379   -0.0747793816912193    34.6304768023839 
88  1  2   0.0886  -0.88296284855574    2.1113835937172    35.8550195013759 
89  1  2   0.0886   0.884012629527848    2.11680790159034    35.8555730674256 
90  1  2   0.0807  -0.880114793452524   -0.0133795019027978    37.1750272238054 
91  1  2   0.0807   0.0017308091285368    1.27826154592552    38.0102734941193 
92  1  2   0.0807   0.894885459323084   -0.00716086535382843    37.1749366368476 

Bonds

1  1  2  1
2  1  3  2
3  1  4  3
4  1  5  4
5  1  6  5
6  1  7  6
7  1  8  7
8  1  9  8
9  1  10  9
10  1  11  10
11  1  12  11
12  1  13  12
13  1  14  13
14  1  15  14
15  1  16  15
16  1  17  16
17  1  18  17
18  1  19  18
19  1  20  19
20  1  21  20
21  1  22  21
22  1  23  22
23  1  24  23
24  1  25  24
25  1  26  25
26  1  27  26
27  1  28  27
28  1  29  28
29  1  30  29
30  2  31  1
31  2  32  1
32  2  33  1
33  2  34  2
34  2  35  2
35  2  36  3
36  2  37  3
37  2  38  4
38  2  39  4
39  2  40  5
40  2  41  5
41  2  42  6
42  2  43  6
43  2  44  7
44  2  45  7
45  2  46  8
46  2  47  8
47  2  48  9
48  2  49  9
49  2  50  10
50  2  51  10
51  2  52  11
52  2  53  11
53  2  54  12
54  2  55  12
55  2  56  13
56  2  57  13
57  2  58  14
58  2  59  14
59  2  60  15
60  2  61  15
61  2  62  16
62  2  63  16
63  2  64  17
64  2  65  17
65  2  66  18
66  2  67  18
67  2  68  19
68  2  69  19
69  2  70  20
70  2  71  20
71  2  72  21
72  2  73  21
73  2  74  22
74  2  75  22
75  2  76  23
76  2  77  23
77  2  78  24
78  2  79  24
79  2  80  25
80  2  81  25
81  2  82  26
82  2  83  26
83  2  84  27
84  2  85  27
85  2  86  28
86  2  87  28
87  2  88  29
88  2  89  29
89  2  90  30
90  2  91  30
91  2  92  30

Angles

1  1  1  2  3
2  1  2  3  4
3  1  3  4  5
4  1  4  5  6
5  1  5  6  7
6  1  6  7  8
7  1  7  8  9
8  1  8  9  10
9  1  9  10  11
10  1  10  11  12
11  1  11  12  13
12  1  12  13  14
13  1  13  14  15
14  1  14  15  16
15  1  15  16  17
16  1  16  17  18
17  1  17  18  19
18  1  18  19  20
19  1  19  20  21
20  1  20  21  22
21  1  21  22  23
22  1  22  23  24
23  1  23  24  25
24  1  24  25  26
25  1  25  26  27
26  1  26  27  28
27  1  27  28  29
28  1  28  29  30
29  2  2  1  31
30  2  2  1  32
31  2  2  1  33
32  2  1  2  34
33  2  1  2  35
34  2  2  3  36
35  2  2  3  37
36  2  3  4  38
37  2  3  4  39
38  2  4  5  40
39  2  4  5  41
40  2  5  6  42
41  2  5  6  43
42  2  6  7  44
43  2  6  7  45
44  2  7  8  46
45  2  7  8  47
46  2  8  9  48
47  2  8  9  49
48  2  9  10  50
49  2  9  10  51
50  2  10  11  52
51  2  10  11  53
52  2  11  12  54
53  2  11  12  55
54  2  12  13  56
55  2  12  13  57
56  2  13  14  58
57  2  13  14  59
58  2  14  15  60
59  2  14  15  61
60  2  15  16  62
61  2  15  16  63
62  2  16  17  64
63  2  16  17  65
64  2  17  18  66
65  2  17  18  67
66  2  18  19  68
67  2  18  19  69
68  2  19  20  70
69  2  19  20  71
70  2  20  21  72
71  2  20  21  73
72  2  21  22  74
73  2  21  22  75
74  2  22  23  76
75  2  22  23  77
76  2  23  24  78
77  2  23  24  79
78  2  24  25  80
79  2  24  25  81
80  2  25  26  82
81  2  25  26  83
82  2  26  27  84
83  2  26  27  85
84  2  27  28  86
85  2  27  28  87
86  2  28  29  88
87  2  28  29  89
88  2  29  30  90
89  2  29  30  91
90  2  29  30  92
91  3  84  27  85
92  2  29  28  87
93  3  86  28  87
94  2  30  29  89
95  2  7  6  43
96  3  38  4  39
97  3  31  1  33
98  2  20  19  69
99  2  5  4  39
100  2  11  10  50
101  2  17  16  62
102  3  40  5  41
103  2  9  8  47
104  2  15  14  59
105  3  54  12  55
106  2  26  25  81
107  2  18  17  65
108  2  13  12  55
109  3  70  20  71
110  3  46  8  47
111  3  52  11  53
112  2  23  22  75
113  3  34  2  35
114  3  56  13  57
115  3  42  6  43
116  2  21  20  70
117  2  14  13  56
118  2  10  9  48
119  3  31  1  32
120  2  25  24  79
121  2  16  15  61
122  2  15  14  58
123  3  32  1  33
124  2  3  2  35
125  2  25  24  78
126  2  4  3  37
127  3  64  17  65
128  3  90  30  91
129  3  72  21  73
130  2  19  18  66
131  2  12  11  53
132  3  91  30  92
133  2  26  25  80
134  2  18  17  64
135  2  14  13  57
136  2  22  21  73
137  3  78  24  79
138  2  6  5  41
139  3  58  14  59
140  2  28  27  84
141  2  3  2  34
142  2  22  21  72
143  2  8  7  45
144  3  44  7  45
145  2  8  7  44
146  3  88  29  89
147  3  48  9  49
148  3  90  30  92
149  3  36  3  37
150  3  80  25  81
151  3  62  16  63
152  2  16  15  60
153  2  23  22  74
154  2  4  3  36
155  2  21  20  71
156  3  66  18  67
157  2  9  8  46
158  2  20  19  68
159  3  60  15  61
160  2  13  12  54
161  2  30  29  88
162  2  28  27  85
163  3  82  26  83
164  3  50  10  51
165  2  29  28  86
166  2  5  4  38
167  2  19  18  67
168  2  27  26  83
169  2  27  26  82
170  2  10  9  49
171  3  76  23  77
172  2  7  6  42
173  3  68  19  69
174  2  24  23  77
175  2  24  23  76
176  2  12  11  52
177  3  74  22  75
178  2  11  10  51
179  2  17  16  63
180  2  6  5  40

Dihedrals

1  1  4  3  2  1
2  1  5  4  3  2
3  1  6  5  4  3
4  1  7  6  5  4
5  1  8  7  6  5
6  1  9  8  7  6
7  1  10  9  8  7
8  1  11  10  9  8
9  1  12  11  10  9
10  1  13  12  11  10
11  1  14  13  12  11
12  1  15  14  13  12
13  1  16  15  14  13
14  1  17  16  15  14
15  1  18  17  16  15
16  1  19  18  17  16
17  1  20  19  18  17
18  1  21  20  19  18
19  1  22  21  20  19
20  1  23  22  21  20
21  1  24  23  22  21
22  1  25  24  23  22
23  1  26  25  24  23
24  1  27  26  25  24
25  1  28  27  26  25
26  1  29  28  27  26
27  1  30  29  28  27
28  2  31  1  2  3
29  2  90  30  29  28
30  2  92  30  29  88
31  2  77  23  22  75
32  2  35  2  1  31
33  2  61  15  14  58
34  2  67  18  19  20
35  2  55  12  13  14
36  2  86  28  27  84
37  2  63  16  15  14
38  2  47  8  9  10
39  2  60  15  16  17
40  2  71  20  19  69
41  2  88  29  28  86
42  2  89  29  28  87
43  2  58  14  13  12
44  2  72  21  20  71
45  2  73  21  20  70
46  2  62  16  15  60
47  2  41  5  4  38
48  2  77  23  24  25
49  2  79  24  23  22
50  2  71  20  21  22
51  2  66  18  17  64
52  2  40  5  4  3
53  2  58  14  13  57
54  2  54  12  11  10
55  2  45  7  8  9
56  2  60  15  14  59
57  2  46  8  7  6
58  2  84  27  26  82
59  2  37  3  4  5
60  2  67  18  17  65
61  2  60  15  14  13
62  2  61  15  16  17
63  2  92  30  29  89
64  2  69  19  18  66
65  2  39  4  5  6
66  2  65  17  16  15
67  2  54  12  11  53
68  2  62  16  17  18
69  2  64  17  16  15
70  2  76  23  22  21
71  2  39  4  3  36
72  2  43  6  7  8
73  2  34  2  1  31
74  2  63  16  17  18
75  2  43  6  5  41
76  2  49  9  8  47
77  2  76  23  24  25
78  2  41  5  6  7
79  2  51  10  11  12
80  2  37  3  2  1
81  2  69  19  18  17
82  2  55  12  11  53
83  2  34  2  3  4
84  2  90  30  29  88
85  2  35  2  3  4
86  2  79  24  23  77
87  2  50  10  11  12
88  2  81  25  24  78
89  2  53  11  10  9
90  2  83  26  25  81
91  2  57  13  12  55
92  2  65  17  18  19
93  2  64  17  16  62
94  2  91  30  29  88
95  2  90  30  29  89
96  2  78  24  23  77
97  2  79  24  23  76
98  2  49  9  10  11
99  2  38  4  3  37
100  2  82  26  25  80
101  2  32  1  2  3
102  2  74  22  21  73
103  2  69  19  18  67
104  2  40  5  6  7
105  2  82  26  25  81
106  2  35  2  1  33
107  2  78  24  23  76
108  2  66  18  19  20
109  2  86  28  27  26
110  2  72  21  20  70
111  2  75  22  23  24
112  2  59  14  15  16
113  2  55  12  11  52
114  2  53  11  10  51
115  2  91  30  29  28
116  2  54  12  11  52
117  2  61  15  14  59
118  2  58  14  13  56
119  2  35  2  1  32
120  2  34  2  1  33
121  2  56  13  12  11
122  2  73  21  22  23
123  2  74  22  21  20
124  2  53  11  10  50
125  2  64  17  18  19
126  2  46  8  7  45
127  2  67  18  17  16
128  2  84  27  26  83
129  2  50  10  9  49
130  2  69  19  20  21
131  2  68  19  18  67
132  2  47  8  7  6
133  2  70  20  19  18
134  2  44  7  6  5
135  2  72  21  20  19
136  2  45  7  6  43
137  2  70  20  19  68
138  2  43  6  5  4
139  2  44  7  8  9
140  2  50  10  9  8
141  2  37  3  2  35
142  2  53  11  12  13
143  2  48  9  8  47
144  2  47  8  7  44
145  2  48  9  8  46
146  2  38  4  3  2
147  2  75  22  21  72
148  2  37  3  2  34
149  2  36  3  2  1
150  2  34  2  1  32
151  2  91  30  29  89
152  2  40  5  4  39
153  2  74  22  23  24
154  2  39  4  3  37
155  2  59  14  13  56
156  2  81  25  24  79
157  2  74  22  21  72
158  2  62  16  15  61
159  2  42  6  7  8
160  2  86  28  29  30
161  2  59  14  13  57
162  2  82  26  27  28
163  2  89  29  28  27
164  2  71  20  19  18
165  2  39  4  3  2
166  2  81  25  26  27
167  2  51  10  9  48
168  2  68  19  20  21
169  2  87  28  27  84
170  2  61  15  14  13
171  2  48  9  10  11
172  2  58  14  15  16
173  2  44  7  6  43
174  2  77  23  22  21
175  2  48  9  8  7
176  2  79  24  25  26
177  2  38  4  3  36
178  2  75  22  21  20
179  2  72  21  22  23
180  2  80  25  24  78
181  2  62  16  15  14
182  2  40  5  4  38
183  2  46  8  7  44
184  2  68  19  18  17
185  2  52  11  12  13
186  2  60  15  14  58
187  2  42  6  5  40
188  2  43  6  5  40
189  2  42  6  5  41
190  2  86  28  27  85
191  2  45  7  6  42
192  2  41  5  4  3
193  2  66  18  17  16
194  2  85  27  26  82
195  2  85  27  26  25
196  2  45  7  6  5
197  2  44  7  6  42
198  2  92  30  29  28
199  2  65  17  16  62
200  2  83  26  27  28
201  2  51  10  9  8
202  2  77  23  22  74
203  2  76  23  22  75
204  2  65  17  16  63
205  2  80  25  24  79
206  2  64  17  16  63
207  2  52  11  10  51
208  2  88  29  28  27
209  2  63  16  15  61
210  2  50  10  9  48
211  2  47  8  7  45
212  2  41  5  4  39
213  2  89  29  28  86
214  2  84  27  26  25
215  2  85  27  26  83
216  2  85  27  28  29
217  2  87  28  27  26
218  2  75  22  21  73
219  2  84  27  28  29
220  2  33  1  2  3
221  2  87  28  27  85
222  2  38  4  5  6
223  2  42  6  5  4
224  2  57  13  14  15
225  2  88  29  28  87
226  2  68  19  18  66
227  2  87  28  29  30
228  2  52  11  10  9
229  2  51  10  9  49
230  2  76  23  22  74
231  2  56  13  12  54
232  2  67  18  17  64
233  2  66  18  17  65
234  2  83  26  25  24
235  2  36  3  2  35
236  2  59  14  13  12
237  2  55  12  11  10
238  2  56  13  14  15
239  2  70  20  21  22
240  2  70  20  19  69
241  2  71  20  19  68
242  2  52  11  10  50
243  2  54  12  13  14
244  2  57  13  12  11
245  2  56  13  12  55
246  2  57  13  12  54
247  2  36  3  2  34
248  2  36  3  4  5
249  2  49  9  8  46
250  2  81  25  24  23
251  2  63  16  15  60
252  2  73  21  20  71
253  2  49  9  8  7
254  2  46  8  9  10
255  2  73  21  20  19
256  2  80  25  26  27
257  2  78  24  23  22
258  2  80  25  24  23
259  2  83  26  25  80
260  2  78  24  25  26
261  2  82  26  25  24

Impropers

1  1  1  2  31  32
2  1  1  33  31  2
3  1  2  1  34  3
4  1  2  1  35  3
5  1  3  4  2  36
6  1  3  2  4  37
7  1  4  3  5  38
8  1  4  3  5  39
9  1  5  4  6  40
10  1  5  41  4  6
11  1  6  42  5  7
12  1  6  43  5  7
13  1  7  44  6  8
14  1  7  45  6  8
15  1  8  9  46  7
16  1  8  9  7  47
17  1  9  10  8  48
18  1  9  49  10  8
19  1  10  9  50  11
20  1  10  9  51  11
21  1  11  12  10  52
22  1  11  10  12  53
23  1  12  11  13  54
24  1  12  11  13  55
25  1  13  12  14  56
26  1  13  57  12  14
27  1  14  58  13  15
28  1  14  59  13  15
29  1  15  60  14  16
30  1  15  61  14  16
31  1  16  17  62  15
32  1  16  17  15  63
33  1  17  18  16  64
34  1  17  65  18  16
35  1  18  17  66  19
36  1  18  17  67  19
37  1  19  20  18  68
38  1  19  18  20  69
39  1  20  19  21  70
40  1  20  19  21  71
41  1  21  20  22  72
42  1  21  73  20  22
43  1  22  74  21  23
44  1  22  75  21  23
45  1  23  76  22  24
46  1  23  77  22  24
47  1  24  25  78  23
48  1  24  25  23  79
49  1  25  26  24  80
50  1  25  81  26  24
51  1  26  25  82  27
52  1  26  25  83  27
53  1  27  28  26  84
54  1  27  26  28  85
55  1  28  27  29  86
56  1  28  27  29  87
57  1  29  28  30  88
58  1  29  89  28  30
59  1  30  90  91  29
60  1  30  90  92  29
