#C30_acid

92 atoms
6 atom types

91 bonds
6 bond types

178 angles
9 angle types

260 dihedrals
8 dihedral types

59 impropers
2 improper types

-0.891426320219566  0.912645912382263  xlo xhi
-1.71150076965163  1.48166163751657  ylo yhi
-1.12686362985233  37.1105107716207  zlo zhi

Masses

1  12.011
2  12.011
3  15.999
4  15.999
5  1.008
6  1.008

Pair Coeffs

1  0.066  3.5
2  0.07  3.55
3  0.21  2.96
4  0.17  3.12
5  0.03  2.5
6  0.0  0.0

Bond Coeffs

1  268.0  1.529
2  317.0  1.522
3  570.0  1.229
4  450.0  1.364
5  340.0  1.09
6  553.0  0.945

Angle Coeffs

1  58.35  112.7
2  63.0  111.1
3  80.0  120.4
4  70.0  108.0
5  37.5  110.7
6  35.0  113.0
7  33.0  107.8
8  35.0  109.5
9  80.0  121.0

Dihedral Coeffs

1  1.3  -0.2  0.2  0.0
2  -2.06  -0.313  0.315  0.0
3  0.0  0.0  0.0  0.0
4  0.0  0.0  0.3  0.0
5  1.5  5.5  0.0  0.0
6  0.0  0.0  -0.1  0.0
7  1.0  0.546  0.45  0.0
8  0.0  5.5  0.0  0.0

Improper Coeffs

1  10.5  -1.0  2.0
2  0.0  -1.0  2.0

Atoms # full

1  1  1  -0.239   3.4717078371655e-18    5.51088244509053e-14    36.2317452665063 
2  1  1  -0.1796   0.00232146616563576    0.832413232781305    34.9611376084601 
3  1  1  -0.179   0.00577926773535212   -0.0597063159040109    33.7239515420733 
4  1  1  -0.1798   0.00631143705738808    0.776541656692105    32.4474844312064 
5  1  1  -0.18   0.0079701309230815   -0.122619081442897    31.2164416019632 
6  1  1  -0.18   0.00670072293950248    0.71062016451961    29.9415865653056 
7  1  1  -0.1801   0.010169487215076   -0.192726619917068    28.7161730754083 
8  1  1  -0.1803   0.0106955433938188    0.64132934943275    27.4430518701585 
9  1  1  -0.1804   0.0123597458454693   -0.262428790939342    26.2197565735758 
10  1  1  -0.1806   0.0146867723150673    0.573242636801439    24.9500879760648 
11  1  1  -0.1806   0.0181486487403845   -0.329460276048522    23.7274872751637 
12  1  1  -0.1807   0.0186711865227957    0.507008613797166    22.4595333131152 
13  1  1  -0.1807   0.0203299010144512   -0.396741377891814    21.2386343269216 
14  1  1  -0.1807   0.0226624336125831    0.439728784852618    19.9706845057418 
15  1  1  -0.1806   0.0225085940463061   -0.465344330284536    18.7513063719829 
16  1  1  -0.1808   0.0266411214888009    0.371127098326051    17.483360668794 
17  1  1  -0.1807   0.024699312123078   -0.532382846618863    16.262612366087 
18  1  1  -0.1807   0.0270288607446006    0.305442409683253    14.995550301938 
19  1  1  -0.1805   0.0232786401078067   -0.597545901673975    13.7739449420131 
20  1  1  -0.1805   0.0238026693368238    0.239487718533382    12.5051654635236 
21  1  1  -0.1804   0.0182454557388289   -0.663623046914812    11.282281087792 
22  1  1  -0.1802   0.0169499704250614    0.169892006467144    10.0099976751816 
23  1  1  -0.1799   0.0131952572799112   -0.735597379661854    8.78675377785903 
24  1  1  -0.1802   0.010087254998499    0.095762572260022    7.51185969101798 
25  1  1  -0.1793   0.00812085916793644   -0.806052777546375    6.28385308666237 
26  1  1  -0.1792   0.00320094347193513    0.0332024722460552    5.01173715412108 
27  1  1  -0.1802   0.0029672785011905   -0.85036979793932    3.76818901220612 
28  1  1  -0.171  -0.000173184508178412    0.00853987880434342    2.50775704514555 
29  1  1  -0.2605   0.00132987547641914   -0.851577833780937    1.24969058672305 
30  1  2   0.4595   0    0    0 
31  1  3  -0.3944  -0.00201537955051052    1.21944470193906   -0.0271931086496915 
32  1  4  -0.5605   0.00288494533977828   -0.749267587785853   -1.12686362985233 
33  1  5   0.0807  -0.00376866376638662    0.651590950132374    37.1105107716207 
34  1  5   0.0807   0.889004376342872   -0.63677120751272    36.2824430675034 
35  1  5   0.0807  -0.886996447580135   -0.639877182545653    36.2771634042663 
36  1  5   0.0886   0.885430702654491    1.48166163751657    34.9553254852005 
37  1  5   0.0886  -0.88172430944863    1.48045232548629    34.9513045446102 
38  1  5   0.0896  -0.876230504698797   -0.711622951537747    33.7351905818298 
39  1  5   0.0896   0.889925945914649   -0.708582240939117    33.738018520226 
40  1  5   0.0896   0.889145406523013    1.42697872896609    32.4304956269749 
41  1  5   0.0896  -0.877485371352283    1.42590340997189    32.4289544090184 
42  1  5   0.0897  -0.874228922853192   -0.774046828460878    31.2315870544597 
43  1  5   0.0897   0.892463419433591   -0.771197918869145    31.2318993353895 
44  1  5   0.09   0.888907492906725    1.36226990221425    29.9230000867122 
45  1  5   0.09  -0.878263889643871    1.35774340961523    29.92278338653 
46  1  5   0.0901  -0.871750856194096   -0.844810912909726    28.7320844051237 
47  1  5   0.0901   0.895314854486842   -0.840192694203021    28.7347519867345 
48  1  5   0.0902   0.893653509029123    1.29119362705303    27.4244925465114 
49  1  5   0.0902  -0.873317359970374    1.29015989282601    27.4229779506205 
50  1  5   0.0902  -0.871593152616597   -0.912109530675617    26.2360433386394 
51  1  5   0.0902   0.895795819043618   -0.912698483530966    26.238886609358 
52  1  5   0.0903   0.898088382979858    1.2235085239986    24.9341835514432 
53  1  5   0.0903  -0.869436370188972    1.22218184491183    24.9300850446335 
54  1  5   0.0903  -0.864592852755456   -0.981018164885553    23.7437419677508 
55  1  5   0.0903   0.902923465025358   -0.977917944429384    23.7466113773896 
56  1  5   0.0904   0.901993478942248    1.15696494805685    22.4434259461499 
57  1  5   0.0904  -0.865537185837577    1.15583880747929    22.4418497893079 
58  1  5   0.0903  -0.863613734260606   -1.0460875195936    21.2551403141298 
59  1  5   0.0903   0.903885366021804   -1.0467349485158    21.2579454766317 
60  1  5   0.0905   0.907385901418751    1.08790848093132    19.9546112607569 
61  1  5   0.0905  -0.860127085372452    1.09032087035594    19.95296235151 
62  1  5   0.0903  -0.862667119663214   -1.11250384027399    18.768047145234 
63  1  5   0.0903   0.904602922303112   -1.1173048658947    18.7717172162594 
64  1  5   0.0905   0.912645912382263    1.01746315363232    17.4672774314033 
65  1  5   0.0905  -0.854819654380768    1.02353120100754    17.4656325581282 
66  1  5   0.0903  -0.860628389932846   -1.17988134353256    16.2803262721183 
67  1  5   0.0903   0.906878870236218   -1.18423436780076    16.2807038027396 
68  1  5   0.0905   0.912443855401963    0.952928314681714    14.9790237970375 
69  1  5   0.0905  -0.854788967207519    0.957323143645733    14.9810651373085 
70  1  5   0.0902  -0.86178381389711   -1.24537065102653    13.7938365768653 
71  1  5   0.0902   0.905179156842587   -1.24983258807085    13.7917507790423 
72  1  5   0.0906   0.909510959731815    0.886718809883966    12.4872770674325 
73  1  5   0.0906  -0.857427720630808    0.89253157115025    12.4914433661324 
74  1  5   0.09  -0.86631272714176   -1.31133054684656    11.3046414395592 
75  1  5   0.09   0.900587204785426   -1.31522758666541    11.2993391347437 
76  1  5   0.0908   0.901598852741929    0.818096956702208    9.99154985671237 
77  1  5   0.0908  -0.865875754798781    0.820818445782654    9.99488548199101 
78  1  5   0.0899  -0.870673037552959   -1.38449648283514    8.80953022600499 
79  1  5   0.0899   0.896959911222991   -1.38522275249937    8.80630652719498 
80  1  5   0.0914   0.893203949222524    0.746204131880009    7.49367885214989 
81  1  5   0.0914  -0.873139905267426    0.746098905585129    7.49755565921416 
82  1  5   0.0897  -0.874831876091266   -1.4562351256778    6.30459502429116 
83  1  5   0.0897   0.892174112099495   -1.45461519485648    6.29932077343202 
84  1  5   0.094   0.884838561871636    0.68609752635452    5.0011384257442 
85  1  5   0.094  -0.881268753774303    0.681780689526857    5.00345200342817 
86  1  5   0.0885  -0.880101680975777   -1.50141295198915    3.77880286980452 
87  1  5   0.0885   0.886828340545661   -1.49956743756161    3.77606724871393 
88  1  5   0.1113   0.879275580885045    0.664602799248658    2.50879360986314 
89  1  5   0.1113  -0.882118341707266    0.661226345668014    2.50934089049658 
90  1  5   0.1212  -0.891426320219566   -1.48558940767216    1.2319934423657 
91  1  5   0.1212   0.895685393113208   -1.4837091066462    1.23290395697264 
92  1  6   0.4515   0.00535410253696846   -1.71150076965163   -0.95746350299523 

Bonds

1  1  2  1
2  1  3  2
3  1  4  3
4  1  5  4
5  1  6  5
6  1  7  6
7  1  8  7
8  1  9  8
9  1  10  9
10  1  11  10
11  1  12  11
12  1  13  12
13  1  14  13
14  1  15  14
15  1  16  15
16  1  17  16
17  1  18  17
18  1  19  18
19  1  20  19
20  1  21  20
21  1  22  21
22  1  23  22
23  1  24  23
24  1  25  24
25  1  26  25
26  1  27  26
27  1  28  27
28  1  29  28
29  2  30  29
30  3  31  30
31  4  32  30
32  5  33  1
33  5  34  1
34  5  35  1
35  5  36  2
36  5  37  2
37  5  38  3
38  5  39  3
39  5  40  4
40  5  41  4
41  5  42  5
42  5  43  5
43  5  44  6
44  5  45  6
45  5  46  7
46  5  47  7
47  5  48  8
48  5  49  8
49  5  50  9
50  5  51  9
51  5  52  10
52  5  53  10
53  5  54  11
54  5  55  11
55  5  56  12
56  5  57  12
57  5  58  13
58  5  59  13
59  5  60  14
60  5  61  14
61  5  62  15
62  5  63  15
63  5  64  16
64  5  65  16
65  5  66  17
66  5  67  17
67  5  68  18
68  5  69  18
69  5  70  19
70  5  71  19
71  5  72  20
72  5  73  20
73  5  74  21
74  5  75  21
75  5  76  22
76  5  77  22
77  5  78  23
78  5  79  23
79  5  80  24
80  5  81  24
81  5  82  25
82  5  83  25
83  5  84  26
84  5  85  26
85  5  86  27
86  5  87  27
87  5  88  28
88  5  89  28
89  5  90  29
90  5  91  29
91  6  92  32

Angles

1  1  1  2  3
2  1  2  3  4
3  1  3  4  5
4  1  4  5  6
5  1  5  6  7
6  1  6  7  8
7  1  7  8  9
8  1  8  9  10
9  1  9  10  11
10  1  10  11  12
11  1  11  12  13
12  1  12  13  14
13  1  13  14  15
14  1  14  15  16
15  1  15  16  17
16  1  16  17  18
17  1  17  18  19
18  1  18  19  20
19  1  19  20  21
20  1  20  21  22
21  1  21  22  23
22  1  22  23  24
23  1  23  24  25
24  1  24  25  26
25  1  25  26  27
26  1  26  27  28
27  1  27  28  29
28  2  28  29  30
29  3  29  30  31
30  4  29  30  32
31  5  2  1  33
32  5  2  1  34
33  5  2  1  35
34  5  1  2  36
35  5  1  2  37
36  5  2  3  38
37  5  2  3  39
38  5  3  4  40
39  5  3  4  41
40  5  4  5  42
41  5  4  5  43
42  5  5  6  44
43  5  5  6  45
44  5  6  7  46
45  5  6  7  47
46  5  7  8  48
47  5  7  8  49
48  5  8  9  50
49  5  8  9  51
50  5  9  10  52
51  5  9  10  53
52  5  10  11  54
53  5  10  11  55
54  5  11  12  56
55  5  11  12  57
56  5  12  13  58
57  5  12  13  59
58  5  13  14  60
59  5  13  14  61
60  5  14  15  62
61  5  14  15  63
62  5  15  16  64
63  5  15  16  65
64  5  16  17  66
65  5  16  17  67
66  5  17  18  68
67  5  17  18  69
68  5  18  19  70
69  5  18  19  71
70  5  19  20  72
71  5  19  20  73
72  5  20  21  74
73  5  20  21  75
74  5  21  22  76
75  5  21  22  77
76  5  22  23  78
77  5  22  23  79
78  5  23  24  80
79  5  23  24  81
80  5  24  25  82
81  5  24  25  83
82  5  25  26  84
83  5  25  26  85
84  5  26  27  86
85  5  26  27  87
86  5  27  28  88
87  5  27  28  89
88  5  28  29  90
89  5  28  29  91
90  6  30  32  92
91  7  74  21  75
92  5  29  28  89
93  5  13  12  56
94  5  25  24  81
95  7  82  25  83
96  5  29  28  88
97  5  8  7  46
98  5  4  3  38
99  7  78  23  79
100  5  5  4  40
101  5  20  19  71
102  5  23  22  76
103  5  23  22  77
104  5  9  8  48
105  5  18  17  67
106  5  22  21  75
107  5  9  8  49
108  7  90  29  91
109  5  4  3  39
110  7  34  1  35
111  5  6  5  43
112  7  42  5  43
113  7  64  16  65
114  5  10  9  50
115  5  3  2  37
116  5  24  23  78
117  5  14  13  59
118  5  15  14  60
119  5  21  20  73
120  7  48  8  49
121  7  62  15  63
122  5  20  19  70
123  7  84  26  85
124  5  5  4  41
125  5  26  25  82
126  5  22  21  74
127  7  58  13  59
128  8  30  29  91
129  7  36  2  37
130  5  19  18  69
131  7  38  3  39
132  5  7  6  45
133  5  17  16  65
134  5  3  2  36
135  7  76  22  77
136  7  33  1  35
137  5  16  15  62
138  7  70  19  71
139  5  15  14  61
140  7  52  10  53
141  7  66  17  67
142  9  31  30  32
143  5  18  17  66
144  5  13  12  57
145  5  27  26  84
146  5  8  7  47
147  5  24  23  79
148  5  19  18  68
149  7  50  9  51
150  7  40  4  41
151  5  26  25  83
152  7  56  12  57
153  7  33  1  34
154  8  30  29  90
155  7  54  11  55
156  5  10  9  51
157  5  14  13  58
158  5  16  15  63
159  5  11  10  52
160  5  7  6  44
161  7  68  18  69
162  7  86  27  87
163  7  46  7  47
164  7  44  6  45
165  5  28  27  86
166  5  11  10  53
167  5  21  20  72
168  5  28  27  87
169  7  80  24  81
170  5  6  5  42
171  5  12  11  54
172  7  72  20  73
173  7  88  28  89
174  5  12  11  55
175  5  17  16  64
176  5  27  26  85
177  5  25  24  80
178  7  60  14  61

Dihedrals

1  1  4  3  2  1
2  1  5  4  3  2
3  1  6  5  4  3
4  1  7  6  5  4
5  1  8  7  6  5
6  1  9  8  7  6
7  1  10  9  8  7
8  1  11  10  9  8
9  1  12  11  10  9
10  1  13  12  11  10
11  1  14  13  12  11
12  1  15  14  13  12
13  1  16  15  14  13
14  1  17  16  15  14
15  1  18  17  16  15
16  1  19  18  17  16
17  1  20  19  18  17
18  1  21  20  19  18
19  1  22  21  20  19
20  1  23  22  21  20
21  1  24  23  22  21
22  1  25  24  23  22
23  1  26  25  24  23
24  1  27  26  25  24
25  1  28  27  26  25
26  1  29  28  27  26
27  2  30  29  28  27
28  3  31  30  29  28
29  4  33  1  2  3
30  5  92  32  30  29
31  4  41  4  3  39
32  4  47  7  6  45
33  4  70  19  18  17
34  4  37  2  1  35
35  4  68  18  17  66
36  4  63  15  14  60
37  4  58  13  12  11
38  4  50  9  8  7
39  4  86  27  26  25
40  4  64  16  17  18
41  3  91  29  30  32
42  4  72  20  21  22
43  4  71  19  18  68
44  4  70  19  18  69
45  4  86  27  26  84
46  4  83  25  24  81
47  4  85  26  25  83
48  4  74  21  20  19
49  4  73  20  21  22
50  4  40  4  3  39
51  4  41  4  3  38
52  4  57  12  11  10
53  4  48  8  7  6
54  4  54  11  12  13
55  4  41  4  5  6
56  6  89  28  29  30
57  4  83  25  24  23
58  4  54  11  10  9
59  4  87  27  26  84
60  4  80  24  25  26
61  4  88  28  27  86
62  4  40  4  3  2
63  4  49  8  7  47
64  4  42  5  4  40
65  4  89  28  27  26
66  4  86  27  28  29
67  4  42  5  4  3
68  4  81  24  25  26
69  4  81  24  23  78
70  4  76  22  21  74
71  4  67  17  16  15
72  4  84  26  25  82
73  4  37  2  3  4
74  4  57  12  13  14
75  4  66  17  16  15
76  4  57  12  11  55
77  4  61  14  13  59
78  4  35  1  2  3
79  4  79  23  22  76
80  4  38  3  2  1
81  4  49  8  7  6
82  4  79  23  22  77
83  4  55  11  10  52
84  4  61  14  13  58
85  4  87  27  26  25
86  4  62  15  14  13
87  4  89  28  27  87
88  4  46  7  8  9
89  4  73  20  19  71
90  4  79  23  24  25
91  4  84  26  27  28
92  4  68  18  17  16
93  4  73  20  19  18
94  4  61  14  15  16
95  4  70  19  20  21
96  4  76  22  21  20
97  4  90  29  28  89
98  4  78  23  22  77
99  4  63  15  14  61
100  4  46  7  6  5
101  4  62  15  14  61
102  4  83  25  26  27
103  4  45  6  7  8
104  4  74  21  22  23
105  4  51  9  8  7
106  4  60  14  15  16
107  4  63  15  14  13
108  4  49  8  9  10
109  4  55  11  12  13
110  4  36  2  1  35
111  4  39  3  4  5
112  4  59  13  12  57
113  4  78  23  22  21
114  4  48  8  7  47
115  4  49  8  7  46
116  4  66  17  16  65
117  4  68  18  19  20
118  4  71  19  18  17
119  3  90  29  30  31
120  4  55  11  10  9
121  4  65  16  17  18
122  4  63  15  16  17
123  4  52  10  11  12
124  4  91  29  28  88
125  4  69  18  17  16
126  4  66  17  16  64
127  4  62  15  16  17
128  4  78  23  24  25
129  4  40  4  3  38
130  4  72  20  19  18
131  4  77  22  23  24
132  4  80  24  23  22
133  4  67  17  18  19
134  6  88  28  29  30
135  4  34  1  2  3
136  4  87  27  28  29
137  4  66  17  18  19
138  4  42  5  4  41
139  4  45  6  5  4
140  4  52  10  9  8
141  4  59  13  14  15
142  4  56  12  11  10
143  4  61  14  13  12
144  4  76  22  21  75
145  4  75  21  20  72
146  4  77  22  21  20
147  4  50  9  8  48
148  4  74  21  20  73
149  4  44  6  5  4
150  4  64  16  15  14
151  4  46  7  6  45
152  4  47  7  6  44
153  4  82  25  24  81
154  4  76  22  23  24
155  4  42  5  6  7
156  4  79  23  22  21
157  4  41  4  3  2
158  4  51  9  10  11
159  4  38  3  4  5
160  4  43  5  4  41
161  4  72  20  19  71
162  4  46  7  6  44
163  4  53  10  9  51
164  4  55  11  10  53
165  4  37  2  1  33
166  4  73  20  19  70
167  4  40  4  5  6
168  4  36  2  1  34
169  4  69  18  17  66
170  4  86  27  26  85
171  4  80  24  23  78
172  4  43  5  4  3
173  4  82  25  24  23
174  4  82  25  26  27
175  4  65  16  15  62
176  4  64  16  15  63
177  4  56  12  11  54
178  4  56  12  11  55
179  4  52  10  9  50
180  4  67  17  16  64
181  4  44  6  5  42
182  4  59  13  12  11
183  4  75  21  22  23
184  4  56  12  13  14
185  4  69  18  17  67
186  4  48  8  9  10
187  4  53  10  9  8
188  4  50  9  10  11
189  4  75  21  20  73
190  3  91  29  30  31
191  4  43  5  6  7
192  3  90  29  30  32
193  4  75  21  20  19
194  4  71  19  20  21
195  4  60  14  13  59
196  7  32  30  29  28
197  4  57  12  11  54
198  4  36  2  3  4
199  4  91  29  28  89
200  4  82  25  24  80
201  4  78  23  22  76
202  4  39  3  2  1
203  4  69  18  19  20
204  4  81  24  23  79
205  4  51  9  8  48
206  4  50  9  8  49
207  4  85  26  25  82
208  4  84  26  25  83
209  4  88  28  27  26
210  4  45  6  5  43
211  4  87  27  26  85
212  4  60  14  13  58
213  4  90  29  28  27
214  4  72  20  19  70
215  4  60  14  13  12
216  4  43  5  4  40
217  4  58  13  12  56
218  4  54  11  10  52
219  4  85  26  27  28
220  4  39  3  2  37
221  4  89  28  27  86
222  4  88  28  27  87
223  4  48  8  7  46
224  4  77  22  21  75
225  4  91  29  28  27
226  4  90  29  28  88
227  4  51  9  8  49
228  4  67  17  16  65
229  4  58  13  14  15
230  4  53  10  11  12
231  4  45  6  5  42
232  4  44  6  5  43
233  4  36  2  1  33
234  4  37  2  1  34
235  4  84  26  25  24
236  4  81  24  23  22
237  4  70  19  18  68
238  4  64  16  15  62
239  4  47  7  6  5
240  4  44  6  7  8
241  4  62  15  14  60
242  4  71  19  18  69
243  4  80  24  23  79
244  4  39  3  2  36
245  4  38  3  2  37
246  4  58  13  12  57
247  4  59  13  12  56
248  4  65  16  15  14
249  4  38  3  2  36
250  4  47  7  8  9
251  4  52  10  9  51
252  4  53  10  9  50
253  4  85  26  25  24
254  4  68  18  17  67
255  4  77  22  21  74
256  4  65  16  15  63
257  4  74  21  20  72
258  8  92  32  30  31
259  4  83  25  24  80
260  4  54  11  10  53

Impropers

1  1  30  29  31  32
2  2  1  34  33  2
3  2  1  2  35  33
4  2  2  1  3  36
5  2  2  1  3  37
6  2  3  2  4  38
7  2  3  2  4  39
8  2  4  3  5  40
9  2  4  41  3  5
10  2  5  42  4  6
11  2  5  43  4  6
12  2  6  44  5  7
13  2  6  5  45  7
14  2  7  8  46  6
15  2  7  8  47  6
16  2  8  9  7  48
17  2  8  49  9  7
18  2  9  50  10  8
19  2  9  10  51  8
20  2  10  9  11  52
21  2  10  9  11  53
22  2  11  10  12  54
23  2  11  10  12  55
24  2  12  11  13  56
25  2  12  57  11  13
26  2  13  58  12  14
27  2  13  59  12  14
28  2  14  60  13  15
29  2  14  13  61  15
30  2  15  16  62  14
31  2  15  16  63  14
32  2  16  17  15  64
33  2  16  65  17  15
34  2  17  66  18  16
35  2  17  18  67  16
36  2  18  17  19  68
37  2  18  17  19  69
38  2  19  18  20  70
39  2  19  18  20  71
40  2  20  19  21  72
41  2  20  73  19  21
42  2  21  74  20  22
43  2  21  75  20  22
44  2  22  76  21  23
45  2  22  21  77  23
46  2  23  24  78  22
47  2  23  24  79  22
48  2  24  25  23  80
49  2  24  81  25  23
50  2  25  82  26  24
51  2  25  26  83  24
52  2  26  25  27  84
53  2  26  25  27  85
54  2  27  26  28  86
55  2  27  26  28  87
56  2  28  27  29  88
57  2  28  89  27  29
58  2  29  90  28  30
59  2  29  91  28  30
