LAMMPS data file Created by LigParGen - (Written by Leela S. Dodda)

      91 atoms
      90 bonds
     177 angles
     258 dihedrals
      59 impropers
 
      91 atom types
      90 bond types
     177 angle types
     258 dihedral types
      59 improper types
 
  -29.905070    20.094930 xlo xhi
    0.112530    50.112530 ylo yhi
   -1.026540    48.973460 zlo zhi

Masses

       1     12.011  
       2     12.011  
       3     12.011  
       4     12.011  
       5     12.011  
       6     12.011  
       7     12.011  
       8     12.011  
       9     12.011  
      10     12.011  
      11     12.011  
      12     12.011  
      13     12.011  
      14     12.011  
      15     12.011  
      16     12.011  
      17     12.011  
      18     12.011  
      19     12.011  
      20     12.011  
      21     12.011  
      22     12.011  
      23     12.011  
      24     12.011  
      25     12.011  
      26     12.011  
      27     12.011  
      28     12.011  
      29     12.011  
      30     12.011  
      31     15.999  
      32     15.999  
      33      1.008  
      34      1.008  
      35      1.008  
      36      1.008  
      37      1.008  
      38      1.008  
      39      1.008  
      40      1.008  
      41      1.008  
      42      1.008  
      43      1.008  
      44      1.008  
      45      1.008  
      46      1.008  
      47      1.008  
      48      1.008  
      49      1.008  
      50      1.008  
      51      1.008  
      52      1.008  
      53      1.008  
      54      1.008  
      55      1.008  
      56      1.008  
      57      1.008  
      58      1.008  
      59      1.008  
      60      1.008  
      61      1.008  
      62      1.008  
      63      1.008  
      64      1.008  
      65      1.008  
      66      1.008  
      67      1.008  
      68      1.008  
      69      1.008  
      70      1.008  
      71      1.008  
      72      1.008  
      73      1.008  
      74      1.008  
      75      1.008  
      76      1.008  
      77      1.008  
      78      1.008  
      79      1.008  
      80      1.008  
      81      1.008  
      82      1.008  
      83      1.008  
      84      1.008  
      85      1.008  
      86      1.008  
      87      1.008  
      88      1.008  
      89      1.008  
      90      1.008  
      91      1.008  

Pair Coeffs 

       1      0.066  3.5000000 
       2      0.066  3.5000000 
       3      0.066  3.5000000 
       4      0.066  3.5000000 
       5      0.066  3.5000000 
       6      0.066  3.5000000 
       7      0.066  3.5000000 
       8      0.066  3.5000000 
       9      0.066  3.5000000 
      10      0.066  3.5000000 
      11      0.066  3.5000000 
      12      0.066  3.5000000 
      13      0.066  3.5000000 
      14      0.066  3.5000000 
      15      0.066  3.5000000 
      16      0.066  3.5000000 
      17      0.066  3.5000000 
      18      0.066  3.5000000 
      19      0.066  3.5000000 
      20      0.066  3.5000000 
      21      0.066  3.5000000 
      22      0.066  3.5000000 
      23      0.066  3.5000000 
      24      0.066  3.5000000 
      25      0.066  3.5000000 
      26      0.066  3.5000000 
      27      0.066  3.5000000 
      28      0.066  3.5000000 
      29      0.066  3.5000000 
      30      0.070  3.5500000 
      31      0.210  2.9600000 
      32      0.210  2.9600000 
      33      0.030  2.5000000 
      34      0.030  2.5000000 
      35      0.030  2.5000000 
      36      0.030  2.5000000 
      37      0.030  2.5000000 
      38      0.030  2.5000000 
      39      0.030  2.5000000 
      40      0.030  2.5000000 
      41      0.030  2.5000000 
      42      0.030  2.5000000 
      43      0.030  2.5000000 
      44      0.030  2.5000000 
      45      0.030  2.5000000 
      46      0.030  2.5000000 
      47      0.030  2.5000000 
      48      0.030  2.5000000 
      49      0.030  2.5000000 
      50      0.030  2.5000000 
      51      0.030  2.5000000 
      52      0.030  2.5000000 
      53      0.030  2.5000000 
      54      0.030  2.5000000 
      55      0.030  2.5000000 
      56      0.030  2.5000000 
      57      0.030  2.5000000 
      58      0.030  2.5000000 
      59      0.030  2.5000000 
      60      0.030  2.5000000 
      61      0.030  2.5000000 
      62      0.030  2.5000000 
      63      0.030  2.5000000 
      64      0.030  2.5000000 
      65      0.030  2.5000000 
      66      0.030  2.5000000 
      67      0.030  2.5000000 
      68      0.030  2.5000000 
      69      0.030  2.5000000 
      70      0.030  2.5000000 
      71      0.030  2.5000000 
      72      0.030  2.5000000 
      73      0.030  2.5000000 
      74      0.030  2.5000000 
      75      0.030  2.5000000 
      76      0.030  2.5000000 
      77      0.030  2.5000000 
      78      0.030  2.5000000 
      79      0.030  2.5000000 
      80      0.030  2.5000000 
      81      0.030  2.5000000 
      82      0.030  2.5000000 
      83      0.030  2.5000000 
      84      0.030  2.5000000 
      85      0.030  2.5000000 
      86      0.030  2.5000000 
      87      0.030  2.5000000 
      88      0.030  2.5000000 
      89      0.030  2.5000000 
      90      0.030  2.5000000 
      91      0.030  2.5000000 

Bond Coeffs 

       1   268.0000     1.5290 
       2   268.0000     1.5290 
       3   268.0000     1.5290 
       4   268.0000     1.5290 
       5   268.0000     1.5290 
       6   268.0000     1.5290 
       7   268.0000     1.5290 
       8   268.0000     1.5290 
       9   268.0000     1.5290 
      10   268.0000     1.5290 
      11   268.0000     1.5290 
      12   268.0000     1.5290 
      13   268.0000     1.5290 
      14   268.0000     1.5290 
      15   268.0000     1.5290 
      16   268.0000     1.5290 
      17   268.0000     1.5290 
      18   268.0000     1.5290 
      19   268.0000     1.5290 
      20   268.0000     1.5290 
      21   268.0000     1.5290 
      22   268.0000     1.5290 
      23   268.0000     1.5290 
      24   268.0000     1.5290 
      25   268.0000     1.5290 
      26   268.0000     1.5290 
      27   268.0000     1.5290 
      28   268.0000     1.5290 
      29   317.0000     1.5220 
      30   656.0000     1.2500 
      31   656.0000     1.2500 
      32   340.0000     1.0900 
      33   340.0000     1.0900 
      34   340.0000     1.0900 
      35   340.0000     1.0900 
      36   340.0000     1.0900 
      37   340.0000     1.0900 
      38   340.0000     1.0900 
      39   340.0000     1.0900 
      40   340.0000     1.0900 
      41   340.0000     1.0900 
      42   340.0000     1.0900 
      43   340.0000     1.0900 
      44   340.0000     1.0900 
      45   340.0000     1.0900 
      46   340.0000     1.0900 
      47   340.0000     1.0900 
      48   340.0000     1.0900 
      49   340.0000     1.0900 
      50   340.0000     1.0900 
      51   340.0000     1.0900 
      52   340.0000     1.0900 
      53   340.0000     1.0900 
      54   340.0000     1.0900 
      55   340.0000     1.0900 
      56   340.0000     1.0900 
      57   340.0000     1.0900 
      58   340.0000     1.0900 
      59   340.0000     1.0900 
      60   340.0000     1.0900 
      61   340.0000     1.0900 
      62   340.0000     1.0900 
      63   340.0000     1.0900 
      64   340.0000     1.0900 
      65   340.0000     1.0900 
      66   340.0000     1.0900 
      67   340.0000     1.0900 
      68   340.0000     1.0900 
      69   340.0000     1.0900 
      70   340.0000     1.0900 
      71   340.0000     1.0900 
      72   340.0000     1.0900 
      73   340.0000     1.0900 
      74   340.0000     1.0900 
      75   340.0000     1.0900 
      76   340.0000     1.0900 
      77   340.0000     1.0900 
      78   340.0000     1.0900 
      79   340.0000     1.0900 
      80   340.0000     1.0900 
      81   340.0000     1.0900 
      82   340.0000     1.0900 
      83   340.0000     1.0900 
      84   340.0000     1.0900 
      85   340.0000     1.0900 
      86   340.0000     1.0900 
      87   340.0000     1.0900 
      88   340.0000     1.0900 
      89   340.0000     1.0900 
      90   340.0000     1.0900 

Angle Coeffs 

       1     58.350    112.700
       2     58.350    112.700
       3     58.350    112.700
       4     58.350    112.700
       5     58.350    112.700
       6     58.350    112.700
       7     58.350    112.700
       8     58.350    112.700
       9     58.350    112.700
      10     58.350    112.700
      11     58.350    112.700
      12     58.350    112.700
      13     58.350    112.700
      14     58.350    112.700
      15     58.350    112.700
      16     58.350    112.700
      17     58.350    112.700
      18     58.350    112.700
      19     58.350    112.700
      20     58.350    112.700
      21     58.350    112.700
      22     58.350    112.700
      23     58.350    112.700
      24     58.350    112.700
      25     58.350    112.700
      26     58.350    112.700
      27     58.350    112.700
      28     63.000    111.100
      29     70.000    117.000
      30     70.000    117.000
      31     37.500    110.700
      32     37.500    110.700
      33     37.500    110.700
      34     37.500    110.700
      35     37.500    110.700
      36     37.500    110.700
      37     37.500    110.700
      38     37.500    110.700
      39     37.500    110.700
      40     37.500    110.700
      41     37.500    110.700
      42     37.500    110.700
      43     37.500    110.700
      44     37.500    110.700
      45     37.500    110.700
      46     37.500    110.700
      47     37.500    110.700
      48     37.500    110.700
      49     37.500    110.700
      50     37.500    110.700
      51     37.500    110.700
      52     37.500    110.700
      53     37.500    110.700
      54     37.500    110.700
      55     37.500    110.700
      56     37.500    110.700
      57     37.500    110.700
      58     37.500    110.700
      59     37.500    110.700
      60     37.500    110.700
      61     37.500    110.700
      62     37.500    110.700
      63     37.500    110.700
      64     37.500    110.700
      65     37.500    110.700
      66     37.500    110.700
      67     37.500    110.700
      68     37.500    110.700
      69     37.500    110.700
      70     37.500    110.700
      71     37.500    110.700
      72     37.500    110.700
      73     37.500    110.700
      74     37.500    110.700
      75     37.500    110.700
      76     37.500    110.700
      77     37.500    110.700
      78     37.500    110.700
      79     37.500    110.700
      80     37.500    110.700
      81     37.500    110.700
      82     37.500    110.700
      83     37.500    110.700
      84     37.500    110.700
      85     37.500    110.700
      86     37.500    110.700
      87     37.500    110.700
      88     37.500    110.700
      89     37.500    110.700
      90     33.000    107.800
      91     37.500    110.700
      92     37.500    110.700
      93     37.500    110.700
      94     33.000    107.800
      95     37.500    110.700
      96     37.500    110.700
      97     37.500    110.700
      98     33.000    107.800
      99     37.500    110.700
     100     37.500    110.700
     101     37.500    110.700
     102     37.500    110.700
     103     37.500    110.700
     104     37.500    110.700
     105     37.500    110.700
     106     37.500    110.700
     107     33.000    107.800
     108     37.500    110.700
     109     33.000    107.800
     110     37.500    110.700
     111     33.000    107.800
     112     33.000    107.800
     113     37.500    110.700
     114     37.500    110.700
     115     37.500    110.700
     116     37.500    110.700
     117     37.500    110.700
     118     37.500    110.700
     119     33.000    107.800
     120     33.000    107.800
     121     37.500    110.700
     122     33.000    107.800
     123     37.500    110.700
     124     37.500    110.700
     125     37.500    110.700
     126     33.000    107.800
     127     35.000    109.500
     128     33.000    107.800
     129     37.500    110.700
     130     33.000    107.800
     131     37.500    110.700
     132     37.500    110.700
     133     37.500    110.700
     134     33.000    107.800
     135     33.000    107.800
     136     37.500    110.700
     137     33.000    107.800
     138     37.500    110.700
     139     33.000    107.800
     140     33.000    107.800
     141     80.000    126.000
     142     37.500    110.700
     143     37.500    110.700
     144     37.500    110.700
     145     37.500    110.700
     146     37.500    110.700
     147     37.500    110.700
     148     33.000    107.800
     149     33.000    107.800
     150     37.500    110.700
     151     33.000    107.800
     152     33.000    107.800
     153     35.000    109.500
     154     33.000    107.800
     155     37.500    110.700
     156     37.500    110.700
     157     37.500    110.700
     158     37.500    110.700
     159     37.500    110.700
     160     33.000    107.800
     161     33.000    107.800
     162     33.000    107.800
     163     33.000    107.800
     164     37.500    110.700
     165     37.500    110.700
     166     37.500    110.700
     167     37.500    110.700
     168     33.000    107.800
     169     37.500    110.700
     170     37.500    110.700
     171     33.000    107.800
     172     33.000    107.800
     173     37.500    110.700
     174     37.500    110.700
     175     37.500    110.700
     176     37.500    110.700
     177     33.000    107.800

Dihedral Coeffs  

       1      1.300     -0.200      0.200      0.000 
       2      1.300     -0.200      0.200      0.000 
       3      1.300     -0.200      0.200      0.000 
       4      1.300     -0.200      0.200      0.000 
       5      1.300     -0.200      0.200      0.000 
       6      1.300     -0.200      0.200      0.000 
       7      1.300     -0.200      0.200      0.000 
       8      1.300     -0.200      0.200      0.000 
       9      1.300     -0.200      0.200      0.000 
      10      1.300     -0.200      0.200      0.000 
      11      1.300     -0.200      0.200      0.000 
      12      1.300     -0.200      0.200      0.000 
      13      1.300     -0.200      0.200      0.000 
      14      1.300     -0.200      0.200      0.000 
      15      1.300     -0.200      0.200      0.000 
      16      1.300     -0.200      0.200      0.000 
      17      1.300     -0.200      0.200      0.000 
      18      1.300     -0.200      0.200      0.000 
      19      1.300     -0.200      0.200      0.000 
      20      1.300     -0.200      0.200      0.000 
      21      1.300     -0.200      0.200      0.000 
      22      1.300     -0.200      0.200      0.000 
      23      1.300     -0.200      0.200      0.000 
      24      1.300     -0.200      0.200      0.000 
      25      1.300     -0.200      0.200      0.000 
      26      1.300     -0.200      0.200      0.000 
      27     -2.060     -0.313      0.315      0.000 
      28      0.000      0.000      0.000      0.000 
      29      0.000      0.000      0.300      0.000 
      30      0.000      0.000      0.300      0.000 
      31      0.000      0.000      0.300      0.000 
      32      0.000      0.000      0.300      0.000 
      33      0.000      0.000      0.300      0.000 
      34      0.000      0.000      0.300      0.000 
      35      0.000      0.000      0.300      0.000 
      36      0.000      0.000      0.300      0.000 
      37      0.000      0.000      0.300      0.000 
      38      0.000      0.000      0.300      0.000 
      39      0.000      0.000      0.300      0.000 
      40      0.000      0.000      0.000      0.000 
      41      0.000      0.000      0.300      0.000 
      42      0.000      0.000      0.300      0.000 
      43      0.000      0.000      0.300      0.000 
      44      0.000      0.000      0.300      0.000 
      45      0.000      0.000      0.300      0.000 
      46      0.000      0.000      0.300      0.000 
      47      0.000      0.000      0.300      0.000 
      48      0.000      0.000      0.300      0.000 
      49      0.000      0.000      0.300      0.000 
      50      0.000      0.000      0.300      0.000 
      51      0.000      0.000      0.300      0.000 
      52      0.000      0.000      0.300      0.000 
      53      0.000      0.000      0.300      0.000 
      54      0.000      0.000      0.300      0.000 
      55      0.000      0.000     -0.100      0.000 
      56      0.000      0.000      0.300      0.000 
      57      0.000      0.000      0.300      0.000 
      58      0.000      0.000      0.300      0.000 
      59      0.000      0.000      0.300      0.000 
      60      0.000      0.000      0.300      0.000 
      61      0.000      0.000      0.300      0.000 
      62      0.000      0.000      0.300      0.000 
      63      0.000      0.000      0.300      0.000 
      64      0.000      0.000      0.300      0.000 
      65      0.000      0.000      0.300      0.000 
      66      0.000      0.000      0.300      0.000 
      67      0.000      0.000      0.300      0.000 
      68      0.000      0.000      0.300      0.000 
      69      0.000      0.000      0.300      0.000 
      70      0.000      0.000      0.300      0.000 
      71      0.000      0.000      0.300      0.000 
      72      0.000      0.000      0.300      0.000 
      73      0.000      0.000      0.300      0.000 
      74      0.000      0.000      0.300      0.000 
      75      0.000      0.000      0.300      0.000 
      76      0.000      0.000      0.300      0.000 
      77      0.000      0.000      0.300      0.000 
      78      0.000      0.000      0.300      0.000 
      79      0.000      0.000      0.300      0.000 
      80      0.000      0.000      0.300      0.000 
      81      0.000      0.000      0.300      0.000 
      82      0.000      0.000      0.300      0.000 
      83      0.000      0.000      0.300      0.000 
      84      0.000      0.000      0.300      0.000 
      85      0.000      0.000      0.300      0.000 
      86      0.000      0.000      0.300      0.000 
      87      0.000      0.000      0.300      0.000 
      88      0.000      0.000      0.300      0.000 
      89      0.000      0.000      0.300      0.000 
      90      0.000      0.000      0.300      0.000 
      91      0.000      0.000      0.300      0.000 
      92      0.000      0.000      0.300      0.000 
      93      0.000      0.000      0.300      0.000 
      94      0.000      0.000      0.300      0.000 
      95      0.000      0.000      0.300      0.000 
      96      0.000      0.000      0.300      0.000 
      97      0.000      0.000      0.300      0.000 
      98      0.000      0.000      0.300      0.000 
      99      0.000      0.000      0.300      0.000 
     100      0.000      0.000      0.300      0.000 
     101      0.000      0.000      0.300      0.000 
     102      0.000      0.000      0.300      0.000 
     103      0.000      0.000      0.300      0.000 
     104      0.000      0.000      0.300      0.000 
     105      0.000      0.000      0.300      0.000 
     106      0.000      0.000      0.300      0.000 
     107      0.000      0.000      0.300      0.000 
     108      0.000      0.000      0.300      0.000 
     109      0.000      0.000      0.300      0.000 
     110      0.000      0.000      0.300      0.000 
     111      0.000      0.000      0.300      0.000 
     112      0.000      0.000      0.300      0.000 
     113      0.000      0.000      0.300      0.000 
     114      0.000      0.000      0.300      0.000 
     115      0.000      0.000      0.300      0.000 
     116      0.000      0.000      0.300      0.000 
     117      0.000      0.000      0.300      0.000 
     118      0.000      0.000      0.000      0.000 
     119      0.000      0.000      0.300      0.000 
     120      0.000      0.000      0.300      0.000 
     121      0.000      0.000      0.300      0.000 
     122      0.000      0.000      0.300      0.000 
     123      0.000      0.000      0.300      0.000 
     124      0.000      0.000      0.300      0.000 
     125      0.000      0.000      0.300      0.000 
     126      0.000      0.000      0.300      0.000 
     127      0.000      0.000      0.300      0.000 
     128      0.000      0.000      0.300      0.000 
     129      0.000      0.000      0.300      0.000 
     130      0.000      0.000      0.300      0.000 
     131      0.000      0.000      0.300      0.000 
     132      0.000      0.000      0.300      0.000 
     133      0.000      0.000     -0.100      0.000 
     134      0.000      0.000      0.300      0.000 
     135      0.000      0.000      0.300      0.000 
     136      0.000      0.000      0.300      0.000 
     137      0.000      0.000      0.300      0.000 
     138      0.000      0.000      0.300      0.000 
     139      0.000      0.000      0.300      0.000 
     140      0.000      0.000      0.300      0.000 
     141      0.000      0.000      0.300      0.000 
     142      0.000      0.000      0.300      0.000 
     143      0.000      0.000      0.300      0.000 
     144      0.000      0.000      0.300      0.000 
     145      0.000      0.000      0.300      0.000 
     146      0.000      0.000      0.300      0.000 
     147      0.000      0.000      0.300      0.000 
     148      0.000      0.000      0.300      0.000 
     149      0.000      0.000      0.300      0.000 
     150      0.000      0.000      0.300      0.000 
     151      0.000      0.000      0.300      0.000 
     152      0.000      0.000      0.300      0.000 
     153      0.000      0.000      0.300      0.000 
     154      0.000      0.000      0.300      0.000 
     155      0.000      0.000      0.300      0.000 
     156      0.000      0.000      0.300      0.000 
     157      0.000      0.000      0.300      0.000 
     158      0.000      0.000      0.300      0.000 
     159      0.000      0.000      0.300      0.000 
     160      0.000      0.000      0.300      0.000 
     161      0.000      0.000      0.300      0.000 
     162      0.000      0.000      0.300      0.000 
     163      0.000      0.000      0.300      0.000 
     164      0.000      0.000      0.300      0.000 
     165      0.000      0.000      0.300      0.000 
     166      0.000      0.000      0.300      0.000 
     167      0.000      0.000      0.300      0.000 
     168      0.000      0.000      0.300      0.000 
     169      0.000      0.000      0.300      0.000 
     170      0.000      0.000      0.300      0.000 
     171      0.000      0.000      0.300      0.000 
     172      0.000      0.000      0.300      0.000 
     173      0.000      0.000      0.300      0.000 
     174      0.000      0.000      0.300      0.000 
     175      0.000      0.000      0.300      0.000 
     176      0.000      0.000      0.300      0.000 
     177      0.000      0.000      0.300      0.000 
     178      0.000      0.000      0.300      0.000 
     179      0.000      0.000      0.300      0.000 
     180      0.000      0.000      0.300      0.000 
     181      0.000      0.000      0.300      0.000 
     182      0.000      0.000      0.300      0.000 
     183      0.000      0.000      0.300      0.000 
     184      0.000      0.000      0.300      0.000 
     185      0.000      0.000      0.300      0.000 
     186      0.000      0.000      0.300      0.000 
     187      0.000      0.000      0.300      0.000 
     188      0.000      0.000      0.300      0.000 
     189      0.000      0.000      0.000      0.000 
     190      0.000      0.000      0.300      0.000 
     191      0.000      0.000      0.000      0.000 
     192      0.000      0.000      0.300      0.000 
     193      0.000      0.000      0.300      0.000 
     194      0.000      0.000      0.300      0.000 
     195      0.000      0.000      0.000      0.000 
     196      0.000      0.000      0.300      0.000 
     197      0.000      0.000      0.300      0.000 
     198      0.000      0.000      0.300      0.000 
     199      0.000      0.000      0.300      0.000 
     200      0.000      0.000      0.300      0.000 
     201      0.000      0.000      0.300      0.000 
     202      0.000      0.000      0.300      0.000 
     203      0.000      0.000      0.300      0.000 
     204      0.000      0.000      0.300      0.000 
     205      0.000      0.000      0.300      0.000 
     206      0.000      0.000      0.300      0.000 
     207      0.000      0.000      0.300      0.000 
     208      0.000      0.000      0.300      0.000 
     209      0.000      0.000      0.300      0.000 
     210      0.000      0.000      0.300      0.000 
     211      0.000      0.000      0.300      0.000 
     212      0.000      0.000      0.300      0.000 
     213      0.000      0.000      0.300      0.000 
     214      0.000      0.000      0.300      0.000 
     215      0.000      0.000      0.300      0.000 
     216      0.000      0.000      0.300      0.000 
     217      0.000      0.000      0.300      0.000 
     218      0.000      0.000      0.300      0.000 
     219      0.000      0.000      0.300      0.000 
     220      0.000      0.000      0.300      0.000 
     221      0.000      0.000      0.300      0.000 
     222      0.000      0.000      0.300      0.000 
     223      0.000      0.000      0.300      0.000 
     224      0.000      0.000      0.300      0.000 
     225      0.000      0.000      0.300      0.000 
     226      0.000      0.000      0.300      0.000 
     227      0.000      0.000      0.300      0.000 
     228      0.000      0.000      0.300      0.000 
     229      0.000      0.000      0.300      0.000 
     230      0.000      0.000      0.300      0.000 
     231      0.000      0.000      0.300      0.000 
     232      0.000      0.000      0.300      0.000 
     233      0.000      0.000      0.300      0.000 
     234      0.000      0.000      0.300      0.000 
     235      0.000      0.000      0.300      0.000 
     236      0.000      0.000      0.300      0.000 
     237      0.000      0.000      0.300      0.000 
     238      0.000      0.000      0.300      0.000 
     239      0.000      0.000      0.300      0.000 
     240      0.000      0.000      0.300      0.000 
     241      0.000      0.000      0.300      0.000 
     242      0.000      0.000      0.300      0.000 
     243      0.000      0.000      0.300      0.000 
     244      0.000      0.000      0.300      0.000 
     245      0.000      0.000      0.300      0.000 
     246      0.000      0.000      0.300      0.000 
     247      0.000      0.000      0.300      0.000 
     248      0.000      0.000      0.300      0.000 
     249      0.000      0.000      0.300      0.000 
     250      0.000      0.000      0.300      0.000 
     251      0.000      0.000      0.300      0.000 
     252      0.000      0.000      0.300      0.000 
     253      0.000      0.000      0.300      0.000 
     254      0.000      0.000      0.300      0.000 
     255      0.000      0.000      0.300      0.000 
     256      0.000      0.000      0.300      0.000 
     257      0.000      0.000      0.300      0.000 
     258      0.000      0.000      0.300      0.000 

Improper Coeffs 

       1     10.500      -1       2 
       2      0.000      -1       2 
       3      0.000      -1       2 
       4      0.000      -1       2 
       5      0.000      -1       2 
       6      0.000      -1       2 
       7      0.000      -1       2 
       8      0.000      -1       2 
       9      0.000      -1       2 
      10      0.000      -1       2 
      11      0.000      -1       2 
      12      0.000      -1       2 
      13      0.000      -1       2 
      14      0.000      -1       2 
      15      0.000      -1       2 
      16      0.000      -1       2 
      17      0.000      -1       2 
      18      0.000      -1       2 
      19      0.000      -1       2 
      20      0.000      -1       2 
      21      0.000      -1       2 
      22      0.000      -1       2 
      23      0.000      -1       2 
      24      0.000      -1       2 
      25      0.000      -1       2 
      26      0.000      -1       2 
      27      0.000      -1       2 
      28      0.000      -1       2 
      29      0.000      -1       2 
      30      0.000      -1       2 
      31      0.000      -1       2 
      32      0.000      -1       2 
      33      0.000      -1       2 
      34      0.000      -1       2 
      35      0.000      -1       2 
      36      0.000      -1       2 
      37      0.000      -1       2 
      38      0.000      -1       2 
      39      0.000      -1       2 
      40      0.000      -1       2 
      41      0.000      -1       2 
      42      0.000      -1       2 
      43      0.000      -1       2 
      44      0.000      -1       2 
      45      0.000      -1       2 
      46      0.000      -1       2 
      47      0.000      -1       2 
      48      0.000      -1       2 
      49      0.000      -1       2 
      50      0.000      -1       2 
      51      0.000      -1       2 
      52      0.000      -1       2 
      53      0.000      -1       2 
      54      0.000      -1       2 
      55      0.000      -1       2 
      56      0.000      -1       2 
      57      0.000      -1       2 
      58      0.000      -1       2 
      59      0.000      -1       2 

Atoms 

     1      1      1 -0.20950000    1.000  1.00000  0.00000
     2      1      2 -0.15760000   -0.519  1.00000  0.00000
     3      1      3 -0.15700000   -1.065  1.00000  1.42400
     4      1      4 -0.15760000   -2.590  1.00180  1.42564
     5      1      5 -0.15770000   -3.126  1.00359  2.85283
     6      1      6 -0.15790000   -4.648  1.00719  2.85608
     7      1      7 -0.15800000   -5.179  1.00716  4.28331
     8      1      8 -0.15810000   -6.700  1.01256  4.28494
     9      1      9 -0.15830000   -7.227  1.01432  5.71156
    10      1     10 -0.15840000   -8.747  1.01791  5.70995
    11      1     11 -0.15850000   -9.273  1.02148  7.13555
    12      1     12 -0.15860000  -10.792  1.02687  7.13232
    13      1     13 -0.15850000  -11.317  1.02862  8.55787
    14      1     14 -0.15860000  -12.835  1.03221  8.55303
    15      1     15 -0.15860000  -13.360  1.03216  9.97822
    16      1     16 -0.15860000  -14.878  1.03755  9.97337
    17      1     17 -0.15860000  -15.403  1.03570 11.39861
    18      1     18 -0.15860000  -16.922  1.04289 11.39378
    19      1     19 -0.15850000  -17.448  1.03924 12.81882
    20      1     20 -0.15840000  -18.967  1.04823 12.81561
    21      1     21 -0.15840000  -19.493  1.04639 14.24156
    22      1     22 -0.15840000  -21.014  1.05357 14.24158
    23      1     23 -0.15820000  -21.539  1.05352 15.66928
    24      1     24 -0.15850000  -23.061  1.05890 15.67254
    25      1     25 -0.15850000  -23.593  1.06067 17.09952
    26      1     26 -0.15740000  -25.115  1.06425 17.09954
    27      1     27 -0.16150000  -25.662  1.06426 18.52331
    28      1     28 -0.13600000  -27.188  1.06605 18.50864
    29      1     29 -0.23210000  -27.756  1.06430 19.92112
    30      1     30 0.42750000  -29.285  1.06771 19.99285
    31      1     31 -0.63150000  -29.905  1.07155 18.89199
    32      1     32 -0.63150000  -29.747  1.06476 21.16996
    33      1     33 0.07040000    1.378  0.99870 -1.02654
    34      1     34 0.07040000    1.390  0.11253  0.50879
    35      1     35 0.07040000    1.390  1.88878  0.50656
    36      1     36 0.07760000   -0.881  0.11644 -0.53828
    37      1     37 0.07760000   -0.881  1.88367 -0.53835
    38      1     38 0.07850000   -0.696  1.88261  1.96048
    39      1     39 0.07850000   -0.698  0.11679  1.96113
    40      1     40 0.07860000   -2.963  0.11854  0.89289
    41      1     41 0.07860000   -2.961  1.88513  0.89142
    42      1     42 0.07870000   -2.754  1.88625  3.38743
    43      1     43 0.07870000   -2.758  0.11948  3.38813
    44      1     44 0.07880000   -5.024  0.12494  2.32202
    45      1     45 0.07880000   -5.020  1.89164  2.32391
    46      1     46 0.07880000   -4.804  1.88858  4.81829
    47      1     47 0.07880000   -4.811  0.12203  4.81688
    48      1     48 0.07900000   -7.076  0.13027  3.75259
    49      1     49 0.07900000   -7.070  1.89759  3.75271
    50      1     50 0.07900000   -6.854  1.89739  6.24486
    51      1     51 0.07900000   -6.858  0.12980  6.24556
    52      1     52 0.07910000   -9.121  0.13414  5.17823
    53      1     53 0.07910000   -9.116  1.90163  5.17540
    54      1     54 0.07900000   -8.899  1.90453  7.66811
    55      1     55 0.07900000   -8.905  0.13704  7.67023
    56      1     56 0.07910000  -11.166  0.14443  6.59869
    57      1     57 0.07910000  -11.160  1.91195  6.59886
    58      1     58 0.07910000  -10.943  1.91168  9.09077
    59      1     59 0.07910000  -10.947  0.14423  9.09140
    60      1     60 0.07910000  -13.208  0.14982  8.01831
    61      1     61 0.07910000  -13.204  1.91740  8.01984
    62      1     62 0.07900000  -12.985  1.91390 10.51264
    63      1     63 0.07900000  -12.991  0.14638 10.51026
    64      1     64 0.07910000  -15.252  0.15645  9.43712
    65      1     65 0.07910000  -15.246  1.92393  9.44178
    66      1     66 0.07880000  -15.027  1.91611 11.93455
    67      1     67 0.07880000  -15.035  0.14859 11.92915
    68      1     68 0.07890000  -17.296  0.16324 10.85608
    69      1     69 0.07890000  -17.287  1.93103 10.86344
    70      1     70 0.07840000  -17.070  1.91796 13.35602
    71      1     71 0.07840000  -17.080  0.15104 13.34767
    72      1     72 0.07860000  -19.342  0.16882 12.27777
    73      1     73 0.07860000  -19.332  1.93566 12.28396
    74      1     74 0.07780000  -19.116  1.92673 14.77626
    75      1     75 0.07780000  -19.125  0.15960 14.77187
    76      1     76 0.07810000  -21.388  0.17242 13.70580
    77      1     77 0.07810000  -21.380  1.94007 13.70896
    78      1     78 0.07660000  -21.162  1.93505 16.20199
    79      1     79 0.07660000  -21.169  0.16805 16.19955
    80      1     80 0.07710000  -23.434  0.17673 15.13784
    81      1     81 0.07710000  -23.428  1.94373 15.13799
    82      1     82 0.07350000  -23.217  1.94260 17.63321
    83      1     83 0.07350000  -23.222  0.17572 17.63297
    84      1     84 0.07570000  -25.484  0.18264 16.56084
    85      1     85 0.07570000  -25.479  1.94950 16.56326
    86      1     86 0.06510000  -25.293  1.94710 19.05992
    87      1     87 0.06510000  -25.295  0.18014 19.05911
    88      1     88 0.07960000  -27.548  0.18573 17.96226
    89      1     89 0.07960000  -27.546  1.94906 17.96528
    90      1     90 0.05880000  -27.392  1.94671 20.46184
    91      1     91 0.05880000  -27.396  0.17821 20.45892

Bonds 

     1      1      2      1
     2      2      3      2
     3      3      4      3
     4      4      5      4
     5      5      6      5
     6      6      7      6
     7      7      8      7
     8      8      9      8
     9      9     10      9
    10     10     11     10
    11     11     12     11
    12     12     13     12
    13     13     14     13
    14     14     15     14
    15     15     16     15
    16     16     17     16
    17     17     18     17
    18     18     19     18
    19     19     20     19
    20     20     21     20
    21     21     22     21
    22     22     23     22
    23     23     24     23
    24     24     25     24
    25     25     26     25
    26     26     27     26
    27     27     28     27
    28     28     29     28
    29     29     30     29
    30     30     31     30
    31     31     32     30
    32     32     33      1
    33     33     34      1
    34     34     35      1
    35     35     36      2
    36     36     37      2
    37     37     38      3
    38     38     39      3
    39     39     40      4
    40     40     41      4
    41     41     42      5
    42     42     43      5
    43     43     44      6
    44     44     45      6
    45     45     46      7
    46     46     47      7
    47     47     48      8
    48     48     49      8
    49     49     50      9
    50     50     51      9
    51     51     52     10
    52     52     53     10
    53     53     54     11
    54     54     55     11
    55     55     56     12
    56     56     57     12
    57     57     58     13
    58     58     59     13
    59     59     60     14
    60     60     61     14
    61     61     62     15
    62     62     63     15
    63     63     64     16
    64     64     65     16
    65     65     66     17
    66     66     67     17
    67     67     68     18
    68     68     69     18
    69     69     70     19
    70     70     71     19
    71     71     72     20
    72     72     73     20
    73     73     74     21
    74     74     75     21
    75     75     76     22
    76     76     77     22
    77     77     78     23
    78     78     79     23
    79     79     80     24
    80     80     81     24
    81     81     82     25
    82     82     83     25
    83     83     84     26
    84     84     85     26
    85     85     86     27
    86     86     87     27
    87     87     88     28
    88     88     89     28
    89     89     90     29
    90     90     91     29

Angles 

     1      1      1      2      3
     2      2      2      3      4
     3      3      3      4      5
     4      4      4      5      6
     5      5      5      6      7
     6      6      6      7      8
     7      7      7      8      9
     8      8      8      9     10
     9      9      9     10     11
    10     10     10     11     12
    11     11     11     12     13
    12     12     12     13     14
    13     13     13     14     15
    14     14     14     15     16
    15     15     15     16     17
    16     16     16     17     18
    17     17     17     18     19
    18     18     18     19     20
    19     19     19     20     21
    20     20     20     21     22
    21     21     21     22     23
    22     22     22     23     24
    23     23     23     24     25
    24     24     24     25     26
    25     25     25     26     27
    26     26     26     27     28
    27     27     27     28     29
    28     28     28     29     30
    29     29     29     30     31
    30     30     29     30     32
    31     31      2      1     33
    32     32      2      1     34
    33     33      2      1     35
    34     34      1      2     36
    35     35      1      2     37
    36     36      2      3     38
    37     37      2      3     39
    38     38      3      4     40
    39     39      3      4     41
    40     40      4      5     42
    41     41      4      5     43
    42     42      5      6     44
    43     43      5      6     45
    44     44      6      7     46
    45     45      6      7     47
    46     46      7      8     48
    47     47      7      8     49
    48     48      8      9     50
    49     49      8      9     51
    50     50      9     10     52
    51     51      9     10     53
    52     52     10     11     54
    53     53     10     11     55
    54     54     11     12     56
    55     55     11     12     57
    56     56     12     13     58
    57     57     12     13     59
    58     58     13     14     60
    59     59     13     14     61
    60     60     14     15     62
    61     61     14     15     63
    62     62     15     16     64
    63     63     15     16     65
    64     64     16     17     66
    65     65     16     17     67
    66     66     17     18     68
    67     67     17     18     69
    68     68     18     19     70
    69     69     18     19     71
    70     70     19     20     72
    71     71     19     20     73
    72     72     20     21     74
    73     73     20     21     75
    74     74     21     22     76
    75     75     21     22     77
    76     76     22     23     78
    77     77     22     23     79
    78     78     23     24     80
    79     79     23     24     81
    80     80     24     25     82
    81     81     24     25     83
    82     82     25     26     84
    83     83     25     26     85
    84     84     26     27     86
    85     85     26     27     87
    86     86     27     28     88
    87     87     27     28     89
    88     88     28     29     90
    89     89     28     29     91
    90     90     74     21     75
    91     91     29     28     89
    92     92     13     12     56
    93     93     25     24     81
    94     94     82     25     83
    95     95     29     28     88
    96     96      8      7     46
    97     97      4      3     38
    98     98     78     23     79
    99     99      5      4     40
   100    100     20     19     71
   101    101     23     22     76
   102    102     23     22     77
   103    103      9      8     48
   104    104     18     17     67
   105    105     22     21     75
   106    106      9      8     49
   107    107     90     29     91
   108    108      4      3     39
   109    109     34      1     35
   110    110      6      5     43
   111    111     42      5     43
   112    112     64     16     65
   113    113     10      9     50
   114    114      3      2     37
   115    115     24     23     78
   116    116     14     13     59
   117    117     15     14     60
   118    118     21     20     73
   119    119     48      8     49
   120    120     62     15     63
   121    121     20     19     70
   122    122     84     26     85
   123    123      5      4     41
   124    124     26     25     82
   125    125     22     21     74
   126    126     58     13     59
   127    127     30     29     91
   128    128     36      2     37
   129    129     19     18     69
   130    130     38      3     39
   131    131      7      6     45
   132    132     17     16     65
   133    133      3      2     36
   134    134     76     22     77
   135    135     33      1     35
   136    136     16     15     62
   137    137     70     19     71
   138    138     15     14     61
   139    139     52     10     53
   140    140     66     17     67
   141    141     31     30     32
   142    142     18     17     66
   143    143     13     12     57
   144    144     27     26     84
   145    145      8      7     47
   146    146     24     23     79
   147    147     19     18     68
   148    148     50      9     51
   149    149     40      4     41
   150    150     26     25     83
   151    151     56     12     57
   152    152     33      1     34
   153    153     30     29     90
   154    154     54     11     55
   155    155     10      9     51
   156    156     14     13     58
   157    157     16     15     63
   158    158     11     10     52
   159    159      7      6     44
   160    160     68     18     69
   161    161     86     27     87
   162    162     46      7     47
   163    163     44      6     45
   164    164     28     27     86
   165    165     11     10     53
   166    166     21     20     72
   167    167     28     27     87
   168    168     80     24     81
   169    169      6      5     42
   170    170     12     11     54
   171    171     72     20     73
   172    172     88     28     89
   173    173     12     11     55
   174    174     17     16     64
   175    175     27     26     85
   176    176     25     24     80
   177    177     60     14     61

Dihedrals

     1      1      4      3      2      1 
     2      2      5      4      3      2 
     3      3      6      5      4      3 
     4      4      7      6      5      4 
     5      5      8      7      6      5 
     6      6      9      8      7      6 
     7      7     10      9      8      7 
     8      8     11     10      9      8 
     9      9     12     11     10      9 
    10     10     13     12     11     10 
    11     11     14     13     12     11 
    12     12     15     14     13     12 
    13     13     16     15     14     13 
    14     14     17     16     15     14 
    15     15     18     17     16     15 
    16     16     19     18     17     16 
    17     17     20     19     18     17 
    18     18     21     20     19     18 
    19     19     22     21     20     19 
    20     20     23     22     21     20 
    21     21     24     23     22     21 
    22     22     25     24     23     22 
    23     23     26     25     24     23 
    24     24     27     26     25     24 
    25     25     28     27     26     25 
    26     26     29     28     27     26 
    27     27     30     29     28     27 
    28     28     31     30     29     28 
    29     29     33      1      2      3 
    30     30     41      4      3     39 
    31     31     47      7      6     45 
    32     32     70     19     18     17 
    33     33     37      2      1     35 
    34     34     68     18     17     66 
    35     35     63     15     14     60 
    36     36     58     13     12     11 
    37     37     50      9      8      7 
    38     38     86     27     26     25 
    39     39     64     16     17     18 
    40     40     91     29     30     32 
    41     41     72     20     21     22 
    42     42     71     19     18     68 
    43     43     70     19     18     69 
    44     44     86     27     26     84 
    45     45     83     25     24     81 
    46     46     85     26     25     83 
    47     47     74     21     20     19 
    48     48     73     20     21     22 
    49     49     40      4      3     39 
    50     50     41      4      3     38 
    51     51     57     12     11     10 
    52     52     48      8      7      6 
    53     53     54     11     12     13 
    54     54     41      4      5      6 
    55     55     89     28     29     30 
    56     56     83     25     24     23 
    57     57     54     11     10      9 
    58     58     87     27     26     84 
    59     59     80     24     25     26 
    60     60     88     28     27     86 
    61     61     40      4      3      2 
    62     62     49      8      7     47 
    63     63     42      5      4     40 
    64     64     89     28     27     26 
    65     65     86     27     28     29 
    66     66     42      5      4      3 
    67     67     81     24     25     26 
    68     68     81     24     23     78 
    69     69     76     22     21     74 
    70     70     67     17     16     15 
    71     71     84     26     25     82 
    72     72     37      2      3      4 
    73     73     57     12     13     14 
    74     74     66     17     16     15 
    75     75     57     12     11     55 
    76     76     61     14     13     59 
    77     77     35      1      2      3 
    78     78     79     23     22     76 
    79     79     38      3      2      1 
    80     80     49      8      7      6 
    81     81     79     23     22     77 
    82     82     55     11     10     52 
    83     83     61     14     13     58 
    84     84     87     27     26     25 
    85     85     62     15     14     13 
    86     86     89     28     27     87 
    87     87     46      7      8      9 
    88     88     73     20     19     71 
    89     89     79     23     24     25 
    90     90     84     26     27     28 
    91     91     68     18     17     16 
    92     92     73     20     19     18 
    93     93     61     14     15     16 
    94     94     70     19     20     21 
    95     95     76     22     21     20 
    96     96     90     29     28     89 
    97     97     78     23     22     77 
    98     98     63     15     14     61 
    99     99     46      7      6      5 
   100    100     62     15     14     61 
   101    101     83     25     26     27 
   102    102     45      6      7      8 
   103    103     74     21     22     23 
   104    104     51      9      8      7 
   105    105     60     14     15     16 
   106    106     63     15     14     13 
   107    107     49      8      9     10 
   108    108     55     11     12     13 
   109    109     36      2      1     35 
   110    110     39      3      4      5 
   111    111     59     13     12     57 
   112    112     78     23     22     21 
   113    113     48      8      7     47 
   114    114     49      8      7     46 
   115    115     66     17     16     65 
   116    116     68     18     19     20 
   117    117     71     19     18     17 
   118    118     90     29     30     31 
   119    119     55     11     10      9 
   120    120     65     16     17     18 
   121    121     63     15     16     17 
   122    122     52     10     11     12 
   123    123     91     29     28     88 
   124    124     69     18     17     16 
   125    125     66     17     16     64 
   126    126     62     15     16     17 
   127    127     78     23     24     25 
   128    128     40      4      3     38 
   129    129     72     20     19     18 
   130    130     77     22     23     24 
   131    131     80     24     23     22 
   132    132     67     17     18     19 
   133    133     88     28     29     30 
   134    134     34      1      2      3 
   135    135     87     27     28     29 
   136    136     66     17     18     19 
   137    137     42      5      4     41 
   138    138     45      6      5      4 
   139    139     52     10      9      8 
   140    140     59     13     14     15 
   141    141     56     12     11     10 
   142    142     61     14     13     12 
   143    143     76     22     21     75 
   144    144     75     21     20     72 
   145    145     77     22     21     20 
   146    146     50      9      8     48 
   147    147     74     21     20     73 
   148    148     44      6      5      4 
   149    149     64     16     15     14 
   150    150     46      7      6     45 
   151    151     47      7      6     44 
   152    152     82     25     24     81 
   153    153     76     22     23     24 
   154    154     42      5      6      7 
   155    155     79     23     22     21 
   156    156     41      4      3      2 
   157    157     51      9     10     11 
   158    158     38      3      4      5 
   159    159     43      5      4     41 
   160    160     72     20     19     71 
   161    161     46      7      6     44 
   162    162     53     10      9     51 
   163    163     55     11     10     53 
   164    164     37      2      1     33 
   165    165     73     20     19     70 
   166    166     40      4      5      6 
   167    167     36      2      1     34 
   168    168     69     18     17     66 
   169    169     86     27     26     85 
   170    170     80     24     23     78 
   171    171     43      5      4      3 
   172    172     82     25     24     23 
   173    173     82     25     26     27 
   174    174     65     16     15     62 
   175    175     64     16     15     63 
   176    176     56     12     11     54 
   177    177     56     12     11     55 
   178    178     52     10      9     50 
   179    179     67     17     16     64 
   180    180     44      6      5     42 
   181    181     59     13     12     11 
   182    182     75     21     22     23 
   183    183     56     12     13     14 
   184    184     69     18     17     67 
   185    185     48      8      9     10 
   186    186     53     10      9      8 
   187    187     50      9     10     11 
   188    188     75     21     20     73 
   189    189     91     29     30     31 
   190    190     43      5      6      7 
   191    191     90     29     30     32 
   192    192     75     21     20     19 
   193    193     71     19     20     21 
   194    194     60     14     13     59 
   195    195     32     30     29     28 
   196    196     57     12     11     54 
   197    197     36      2      3      4 
   198    198     91     29     28     89 
   199    199     82     25     24     80 
   200    200     78     23     22     76 
   201    201     39      3      2      1 
   202    202     69     18     19     20 
   203    203     81     24     23     79 
   204    204     51      9      8     48 
   205    205     50      9      8     49 
   206    206     85     26     25     82 
   207    207     84     26     25     83 
   208    208     88     28     27     26 
   209    209     45      6      5     43 
   210    210     87     27     26     85 
   211    211     60     14     13     58 
   212    212     90     29     28     27 
   213    213     72     20     19     70 
   214    214     60     14     13     12 
   215    215     43      5      4     40 
   216    216     58     13     12     56 
   217    217     54     11     10     52 
   218    218     85     26     27     28 
   219    219     39      3      2     37 
   220    220     89     28     27     86 
   221    221     88     28     27     87 
   222    222     48      8      7     46 
   223    223     77     22     21     75 
   224    224     91     29     28     27 
   225    225     90     29     28     88 
   226    226     51      9      8     49 
   227    227     67     17     16     65 
   228    228     58     13     14     15 
   229    229     53     10     11     12 
   230    230     45      6      5     42 
   231    231     44      6      5     43 
   232    232     36      2      1     33 
   233    233     37      2      1     34 
   234    234     84     26     25     24 
   235    235     81     24     23     22 
   236    236     70     19     18     68 
   237    237     64     16     15     62 
   238    238     47      7      6      5 
   239    239     44      6      7      8 
   240    240     62     15     14     60 
   241    241     71     19     18     69 
   242    242     80     24     23     79 
   243    243     39      3      2     36 
   244    244     38      3      2     37 
   245    245     58     13     12     57 
   246    246     59     13     12     56 
   247    247     65     16     15     14 
   248    248     38      3      2     36 
   249    249     47      7      8      9 
   250    250     52     10      9     51 
   251    251     53     10      9     50 
   252    252     85     26     25     24 
   253    253     68     18     17     67 
   254    254     77     22     21     74 
   255    255     65     16     15     63 
   256    256     74     21     20     72 
   257    257     83     25     24     80 
   258    258     54     11     10     53 

Impropers

     1      1     30     29     31     32 
     2      2      1     34     33      2 
     3      3      1      2     35     33 
     4      4      2      1      3     36 
     5      5      2      1      3     37 
     6      6      3      2      4     38 
     7      7      3      2      4     39 
     8      8      4      3      5     40 
     9      9      4     41      3      5 
    10     10      5     42      4      6 
    11     11      5     43      4      6 
    12     12      6     44      5      7 
    13     13      6      5     45      7 
    14     14      7      8     46      6 
    15     15      7      8     47      6 
    16     16      8      9      7     48 
    17     17      8     49      9      7 
    18     18      9     50     10      8 
    19     19      9     10     51      8 
    20     20     10      9     11     52 
    21     21     10      9     11     53 
    22     22     11     10     12     54 
    23     23     11     10     12     55 
    24     24     12     11     13     56 
    25     25     12     57     11     13 
    26     26     13     58     12     14 
    27     27     13     59     12     14 
    28     28     14     60     13     15 
    29     29     14     13     61     15 
    30     30     15     16     62     14 
    31     31     15     16     63     14 
    32     32     16     17     15     64 
    33     33     16     65     17     15 
    34     34     17     66     18     16 
    35     35     17     18     67     16 
    36     36     18     17     19     68 
    37     37     18     17     19     69 
    38     38     19     18     20     70 
    39     39     19     18     20     71 
    40     40     20     19     21     72 
    41     41     20     73     19     21 
    42     42     21     74     20     22 
    43     43     21     75     20     22 
    44     44     22     76     21     23 
    45     45     22     21     77     23 
    46     46     23     24     78     22 
    47     47     23     24     79     22 
    48     48     24     25     23     80 
    49     49     24     81     25     23 
    50     50     25     82     26     24 
    51     51     25     26     83     24 
    52     52     26     25     27     84 
    53     53     26     25     27     85 
    54     54     27     26     28     86 
    55     55     27     26     28     87 
    56     56     28     27     29     88 
    57     57     28     89     27     29 
    58     58     29     90     28     30 
    59     59     29     91     28     30 

