LAMMPS data file Created by LigParGen - (Written by Leela S. Dodda)

      92 atoms
      91 bonds
     180 angles
     261 dihedrals
      60 impropers
 
      92 atom types
      91 bond types
     180 angle types
     261 dihedral types
      60 improper types
 
  -29.637770    20.362230 xlo xhi
    0.111090    50.111090 ylo yhi
   -1.026330    48.973670 zlo zhi

Masses

       1     12.011  
       2     12.011  
       3     12.011  
       4     12.011  
       5     12.011  
       6     12.011  
       7     12.011  
       8     12.011  
       9     12.011  
      10     12.011  
      11     12.011  
      12     12.011  
      13     12.011  
      14     12.011  
      15     12.011  
      16     12.011  
      17     12.011  
      18     12.011  
      19     12.011  
      20     12.011  
      21     12.011  
      22     12.011  
      23     12.011  
      24     12.011  
      25     12.011  
      26     12.011  
      27     12.011  
      28     12.011  
      29     12.011  
      30     12.011  
      31      1.008  
      32      1.008  
      33      1.008  
      34      1.008  
      35      1.008  
      36      1.008  
      37      1.008  
      38      1.008  
      39      1.008  
      40      1.008  
      41      1.008  
      42      1.008  
      43      1.008  
      44      1.008  
      45      1.008  
      46      1.008  
      47      1.008  
      48      1.008  
      49      1.008  
      50      1.008  
      51      1.008  
      52      1.008  
      53      1.008  
      54      1.008  
      55      1.008  
      56      1.008  
      57      1.008  
      58      1.008  
      59      1.008  
      60      1.008  
      61      1.008  
      62      1.008  
      63      1.008  
      64      1.008  
      65      1.008  
      66      1.008  
      67      1.008  
      68      1.008  
      69      1.008  
      70      1.008  
      71      1.008  
      72      1.008  
      73      1.008  
      74      1.008  
      75      1.008  
      76      1.008  
      77      1.008  
      78      1.008  
      79      1.008  
      80      1.008  
      81      1.008  
      82      1.008  
      83      1.008  
      84      1.008  
      85      1.008  
      86      1.008  
      87      1.008  
      88      1.008  
      89      1.008  
      90      1.008  
      91      1.008  
      92      1.008  

Pair Coeffs 

       1      0.066  3.5000000 
       2      0.066  3.5000000 
       3      0.066  3.5000000 
       4      0.066  3.5000000 
       5      0.066  3.5000000 
       6      0.066  3.5000000 
       7      0.066  3.5000000 
       8      0.066  3.5000000 
       9      0.066  3.5000000 
      10      0.066  3.5000000 
      11      0.066  3.5000000 
      12      0.066  3.5000000 
      13      0.066  3.5000000 
      14      0.066  3.5000000 
      15      0.066  3.5000000 
      16      0.066  3.5000000 
      17      0.066  3.5000000 
      18      0.066  3.5000000 
      19      0.066  3.5000000 
      20      0.066  3.5000000 
      21      0.066  3.5000000 
      22      0.066  3.5000000 
      23      0.066  3.5000000 
      24      0.066  3.5000000 
      25      0.066  3.5000000 
      26      0.066  3.5000000 
      27      0.066  3.5000000 
      28      0.066  3.5000000 
      29      0.066  3.5000000 
      30      0.066  3.5000000 
      31      0.030  2.5000000 
      32      0.030  2.5000000 
      33      0.030  2.5000000 
      34      0.030  2.5000000 
      35      0.030  2.5000000 
      36      0.030  2.5000000 
      37      0.030  2.5000000 
      38      0.030  2.5000000 
      39      0.030  2.5000000 
      40      0.030  2.5000000 
      41      0.030  2.5000000 
      42      0.030  2.5000000 
      43      0.030  2.5000000 
      44      0.030  2.5000000 
      45      0.030  2.5000000 
      46      0.030  2.5000000 
      47      0.030  2.5000000 
      48      0.030  2.5000000 
      49      0.030  2.5000000 
      50      0.030  2.5000000 
      51      0.030  2.5000000 
      52      0.030  2.5000000 
      53      0.030  2.5000000 
      54      0.030  2.5000000 
      55      0.030  2.5000000 
      56      0.030  2.5000000 
      57      0.030  2.5000000 
      58      0.030  2.5000000 
      59      0.030  2.5000000 
      60      0.030  2.5000000 
      61      0.030  2.5000000 
      62      0.030  2.5000000 
      63      0.030  2.5000000 
      64      0.030  2.5000000 
      65      0.030  2.5000000 
      66      0.030  2.5000000 
      67      0.030  2.5000000 
      68      0.030  2.5000000 
      69      0.030  2.5000000 
      70      0.030  2.5000000 
      71      0.030  2.5000000 
      72      0.030  2.5000000 
      73      0.030  2.5000000 
      74      0.030  2.5000000 
      75      0.030  2.5000000 
      76      0.030  2.5000000 
      77      0.030  2.5000000 
      78      0.030  2.5000000 
      79      0.030  2.5000000 
      80      0.030  2.5000000 
      81      0.030  2.5000000 
      82      0.030  2.5000000 
      83      0.030  2.5000000 
      84      0.030  2.5000000 
      85      0.030  2.5000000 
      86      0.030  2.5000000 
      87      0.030  2.5000000 
      88      0.030  2.5000000 
      89      0.030  2.5000000 
      90      0.030  2.5000000 
      91      0.030  2.5000000 
      92      0.030  2.5000000 

Bond Coeffs 

       1   268.0000     1.5290 
       2   268.0000     1.5290 
       3   268.0000     1.5290 
       4   268.0000     1.5290 
       5   268.0000     1.5290 
       6   268.0000     1.5290 
       7   268.0000     1.5290 
       8   268.0000     1.5290 
       9   268.0000     1.5290 
      10   268.0000     1.5290 
      11   268.0000     1.5290 
      12   268.0000     1.5290 
      13   268.0000     1.5290 
      14   268.0000     1.5290 
      15   268.0000     1.5290 
      16   268.0000     1.5290 
      17   268.0000     1.5290 
      18   268.0000     1.5290 
      19   268.0000     1.5290 
      20   268.0000     1.5290 
      21   268.0000     1.5290 
      22   268.0000     1.5290 
      23   268.0000     1.5290 
      24   268.0000     1.5290 
      25   268.0000     1.5290 
      26   268.0000     1.5290 
      27   268.0000     1.5290 
      28   268.0000     1.5290 
      29   268.0000     1.5290 
      30   340.0000     1.0900 
      31   340.0000     1.0900 
      32   340.0000     1.0900 
      33   340.0000     1.0900 
      34   340.0000     1.0900 
      35   340.0000     1.0900 
      36   340.0000     1.0900 
      37   340.0000     1.0900 
      38   340.0000     1.0900 
      39   340.0000     1.0900 
      40   340.0000     1.0900 
      41   340.0000     1.0900 
      42   340.0000     1.0900 
      43   340.0000     1.0900 
      44   340.0000     1.0900 
      45   340.0000     1.0900 
      46   340.0000     1.0900 
      47   340.0000     1.0900 
      48   340.0000     1.0900 
      49   340.0000     1.0900 
      50   340.0000     1.0900 
      51   340.0000     1.0900 
      52   340.0000     1.0900 
      53   340.0000     1.0900 
      54   340.0000     1.0900 
      55   340.0000     1.0900 
      56   340.0000     1.0900 
      57   340.0000     1.0900 
      58   340.0000     1.0900 
      59   340.0000     1.0900 
      60   340.0000     1.0900 
      61   340.0000     1.0900 
      62   340.0000     1.0900 
      63   340.0000     1.0900 
      64   340.0000     1.0900 
      65   340.0000     1.0900 
      66   340.0000     1.0900 
      67   340.0000     1.0900 
      68   340.0000     1.0900 
      69   340.0000     1.0900 
      70   340.0000     1.0900 
      71   340.0000     1.0900 
      72   340.0000     1.0900 
      73   340.0000     1.0900 
      74   340.0000     1.0900 
      75   340.0000     1.0900 
      76   340.0000     1.0900 
      77   340.0000     1.0900 
      78   340.0000     1.0900 
      79   340.0000     1.0900 
      80   340.0000     1.0900 
      81   340.0000     1.0900 
      82   340.0000     1.0900 
      83   340.0000     1.0900 
      84   340.0000     1.0900 
      85   340.0000     1.0900 
      86   340.0000     1.0900 
      87   340.0000     1.0900 
      88   340.0000     1.0900 
      89   340.0000     1.0900 
      90   340.0000     1.0900 
      91   340.0000     1.0900 

Angle Coeffs 

       1     58.350    112.700
       2     58.350    112.700
       3     58.350    112.700
       4     58.350    112.700
       5     58.350    112.700
       6     58.350    112.700
       7     58.350    112.700
       8     58.350    112.700
       9     58.350    112.700
      10     58.350    112.700
      11     58.350    112.700
      12     58.350    112.700
      13     58.350    112.700
      14     58.350    112.700
      15     58.350    112.700
      16     58.350    112.700
      17     58.350    112.700
      18     58.350    112.700
      19     58.350    112.700
      20     58.350    112.700
      21     58.350    112.700
      22     58.350    112.700
      23     58.350    112.700
      24     58.350    112.700
      25     58.350    112.700
      26     58.350    112.700
      27     58.350    112.700
      28     58.350    112.700
      29     37.500    110.700
      30     37.500    110.700
      31     37.500    110.700
      32     37.500    110.700
      33     37.500    110.700
      34     37.500    110.700
      35     37.500    110.700
      36     37.500    110.700
      37     37.500    110.700
      38     37.500    110.700
      39     37.500    110.700
      40     37.500    110.700
      41     37.500    110.700
      42     37.500    110.700
      43     37.500    110.700
      44     37.500    110.700
      45     37.500    110.700
      46     37.500    110.700
      47     37.500    110.700
      48     37.500    110.700
      49     37.500    110.700
      50     37.500    110.700
      51     37.500    110.700
      52     37.500    110.700
      53     37.500    110.700
      54     37.500    110.700
      55     37.500    110.700
      56     37.500    110.700
      57     37.500    110.700
      58     37.500    110.700
      59     37.500    110.700
      60     37.500    110.700
      61     37.500    110.700
      62     37.500    110.700
      63     37.500    110.700
      64     37.500    110.700
      65     37.500    110.700
      66     37.500    110.700
      67     37.500    110.700
      68     37.500    110.700
      69     37.500    110.700
      70     37.500    110.700
      71     37.500    110.700
      72     37.500    110.700
      73     37.500    110.700
      74     37.500    110.700
      75     37.500    110.700
      76     37.500    110.700
      77     37.500    110.700
      78     37.500    110.700
      79     37.500    110.700
      80     37.500    110.700
      81     37.500    110.700
      82     37.500    110.700
      83     37.500    110.700
      84     37.500    110.700
      85     37.500    110.700
      86     37.500    110.700
      87     37.500    110.700
      88     37.500    110.700
      89     37.500    110.700
      90     37.500    110.700
      91     33.000    107.800
      92     37.500    110.700
      93     33.000    107.800
      94     37.500    110.700
      95     37.500    110.700
      96     33.000    107.800
      97     33.000    107.800
      98     37.500    110.700
      99     37.500    110.700
     100     37.500    110.700
     101     37.500    110.700
     102     33.000    107.800
     103     37.500    110.700
     104     37.500    110.700
     105     33.000    107.800
     106     37.500    110.700
     107     37.500    110.700
     108     37.500    110.700
     109     33.000    107.800
     110     33.000    107.800
     111     33.000    107.800
     112     37.500    110.700
     113     33.000    107.800
     114     33.000    107.800
     115     33.000    107.800
     116     37.500    110.700
     117     37.500    110.700
     118     37.500    110.700
     119     33.000    107.800
     120     37.500    110.700
     121     37.500    110.700
     122     37.500    110.700
     123     33.000    107.800
     124     37.500    110.700
     125     37.500    110.700
     126     37.500    110.700
     127     33.000    107.800
     128     33.000    107.800
     129     33.000    107.800
     130     37.500    110.700
     131     37.500    110.700
     132     33.000    107.800
     133     37.500    110.700
     134     37.500    110.700
     135     37.500    110.700
     136     37.500    110.700
     137     33.000    107.800
     138     37.500    110.700
     139     33.000    107.800
     140     37.500    110.700
     141     37.500    110.700
     142     37.500    110.700
     143     37.500    110.700
     144     33.000    107.800
     145     37.500    110.700
     146     33.000    107.800
     147     33.000    107.800
     148     33.000    107.800
     149     33.000    107.800
     150     33.000    107.800
     151     33.000    107.800
     152     37.500    110.700
     153     37.500    110.700
     154     37.500    110.700
     155     37.500    110.700
     156     33.000    107.800
     157     37.500    110.700
     158     37.500    110.700
     159     33.000    107.800
     160     37.500    110.700
     161     37.500    110.700
     162     37.500    110.700
     163     33.000    107.800
     164     33.000    107.800
     165     37.500    110.700
     166     37.500    110.700
     167     37.500    110.700
     168     37.500    110.700
     169     37.500    110.700
     170     37.500    110.700
     171     33.000    107.800
     172     37.500    110.700
     173     33.000    107.800
     174     37.500    110.700
     175     37.500    110.700
     176     37.500    110.700
     177     33.000    107.800
     178     37.500    110.700
     179     37.500    110.700
     180     37.500    110.700

Dihedral Coeffs  

       1      1.300     -0.200      0.200      0.000 
       2      1.300     -0.200      0.200      0.000 
       3      1.300     -0.200      0.200      0.000 
       4      1.300     -0.200      0.200      0.000 
       5      1.300     -0.200      0.200      0.000 
       6      1.300     -0.200      0.200      0.000 
       7      1.300     -0.200      0.200      0.000 
       8      1.300     -0.200      0.200      0.000 
       9      1.300     -0.200      0.200      0.000 
      10      1.300     -0.200      0.200      0.000 
      11      1.300     -0.200      0.200      0.000 
      12      1.300     -0.200      0.200      0.000 
      13      1.300     -0.200      0.200      0.000 
      14      1.300     -0.200      0.200      0.000 
      15      1.300     -0.200      0.200      0.000 
      16      1.300     -0.200      0.200      0.000 
      17      1.300     -0.200      0.200      0.000 
      18      1.300     -0.200      0.200      0.000 
      19      1.300     -0.200      0.200      0.000 
      20      1.300     -0.200      0.200      0.000 
      21      1.300     -0.200      0.200      0.000 
      22      1.300     -0.200      0.200      0.000 
      23      1.300     -0.200      0.200      0.000 
      24      1.300     -0.200      0.200      0.000 
      25      1.300     -0.200      0.200      0.000 
      26      1.300     -0.200      0.200      0.000 
      27      1.300     -0.200      0.200      0.000 
      28      0.000      0.000      0.300      0.000 
      29      0.000      0.000      0.300      0.000 
      30      0.000      0.000      0.300      0.000 
      31      0.000      0.000      0.300      0.000 
      32      0.000      0.000      0.300      0.000 
      33      0.000      0.000      0.300      0.000 
      34      0.000      0.000      0.300      0.000 
      35      0.000      0.000      0.300      0.000 
      36      0.000      0.000      0.300      0.000 
      37      0.000      0.000      0.300      0.000 
      38      0.000      0.000      0.300      0.000 
      39      0.000      0.000      0.300      0.000 
      40      0.000      0.000      0.300      0.000 
      41      0.000      0.000      0.300      0.000 
      42      0.000      0.000      0.300      0.000 
      43      0.000      0.000      0.300      0.000 
      44      0.000      0.000      0.300      0.000 
      45      0.000      0.000      0.300      0.000 
      46      0.000      0.000      0.300      0.000 
      47      0.000      0.000      0.300      0.000 
      48      0.000      0.000      0.300      0.000 
      49      0.000      0.000      0.300      0.000 
      50      0.000      0.000      0.300      0.000 
      51      0.000      0.000      0.300      0.000 
      52      0.000      0.000      0.300      0.000 
      53      0.000      0.000      0.300      0.000 
      54      0.000      0.000      0.300      0.000 
      55      0.000      0.000      0.300      0.000 
      56      0.000      0.000      0.300      0.000 
      57      0.000      0.000      0.300      0.000 
      58      0.000      0.000      0.300      0.000 
      59      0.000      0.000      0.300      0.000 
      60      0.000      0.000      0.300      0.000 
      61      0.000      0.000      0.300      0.000 
      62      0.000      0.000      0.300      0.000 
      63      0.000      0.000      0.300      0.000 
      64      0.000      0.000      0.300      0.000 
      65      0.000      0.000      0.300      0.000 
      66      0.000      0.000      0.300      0.000 
      67      0.000      0.000      0.300      0.000 
      68      0.000      0.000      0.300      0.000 
      69      0.000      0.000      0.300      0.000 
      70      0.000      0.000      0.300      0.000 
      71      0.000      0.000      0.300      0.000 
      72      0.000      0.000      0.300      0.000 
      73      0.000      0.000      0.300      0.000 
      74      0.000      0.000      0.300      0.000 
      75      0.000      0.000      0.300      0.000 
      76      0.000      0.000      0.300      0.000 
      77      0.000      0.000      0.300      0.000 
      78      0.000      0.000      0.300      0.000 
      79      0.000      0.000      0.300      0.000 
      80      0.000      0.000      0.300      0.000 
      81      0.000      0.000      0.300      0.000 
      82      0.000      0.000      0.300      0.000 
      83      0.000      0.000      0.300      0.000 
      84      0.000      0.000      0.300      0.000 
      85      0.000      0.000      0.300      0.000 
      86      0.000      0.000      0.300      0.000 
      87      0.000      0.000      0.300      0.000 
      88      0.000      0.000      0.300      0.000 
      89      0.000      0.000      0.300      0.000 
      90      0.000      0.000      0.300      0.000 
      91      0.000      0.000      0.300      0.000 
      92      0.000      0.000      0.300      0.000 
      93      0.000      0.000      0.300      0.000 
      94      0.000      0.000      0.300      0.000 
      95      0.000      0.000      0.300      0.000 
      96      0.000      0.000      0.300      0.000 
      97      0.000      0.000      0.300      0.000 
      98      0.000      0.000      0.300      0.000 
      99      0.000      0.000      0.300      0.000 
     100      0.000      0.000      0.300      0.000 
     101      0.000      0.000      0.300      0.000 
     102      0.000      0.000      0.300      0.000 
     103      0.000      0.000      0.300      0.000 
     104      0.000      0.000      0.300      0.000 
     105      0.000      0.000      0.300      0.000 
     106      0.000      0.000      0.300      0.000 
     107      0.000      0.000      0.300      0.000 
     108      0.000      0.000      0.300      0.000 
     109      0.000      0.000      0.300      0.000 
     110      0.000      0.000      0.300      0.000 
     111      0.000      0.000      0.300      0.000 
     112      0.000      0.000      0.300      0.000 
     113      0.000      0.000      0.300      0.000 
     114      0.000      0.000      0.300      0.000 
     115      0.000      0.000      0.300      0.000 
     116      0.000      0.000      0.300      0.000 
     117      0.000      0.000      0.300      0.000 
     118      0.000      0.000      0.300      0.000 
     119      0.000      0.000      0.300      0.000 
     120      0.000      0.000      0.300      0.000 
     121      0.000      0.000      0.300      0.000 
     122      0.000      0.000      0.300      0.000 
     123      0.000      0.000      0.300      0.000 
     124      0.000      0.000      0.300      0.000 
     125      0.000      0.000      0.300      0.000 
     126      0.000      0.000      0.300      0.000 
     127      0.000      0.000      0.300      0.000 
     128      0.000      0.000      0.300      0.000 
     129      0.000      0.000      0.300      0.000 
     130      0.000      0.000      0.300      0.000 
     131      0.000      0.000      0.300      0.000 
     132      0.000      0.000      0.300      0.000 
     133      0.000      0.000      0.300      0.000 
     134      0.000      0.000      0.300      0.000 
     135      0.000      0.000      0.300      0.000 
     136      0.000      0.000      0.300      0.000 
     137      0.000      0.000      0.300      0.000 
     138      0.000      0.000      0.300      0.000 
     139      0.000      0.000      0.300      0.000 
     140      0.000      0.000      0.300      0.000 
     141      0.000      0.000      0.300      0.000 
     142      0.000      0.000      0.300      0.000 
     143      0.000      0.000      0.300      0.000 
     144      0.000      0.000      0.300      0.000 
     145      0.000      0.000      0.300      0.000 
     146      0.000      0.000      0.300      0.000 
     147      0.000      0.000      0.300      0.000 
     148      0.000      0.000      0.300      0.000 
     149      0.000      0.000      0.300      0.000 
     150      0.000      0.000      0.300      0.000 
     151      0.000      0.000      0.300      0.000 
     152      0.000      0.000      0.300      0.000 
     153      0.000      0.000      0.300      0.000 
     154      0.000      0.000      0.300      0.000 
     155      0.000      0.000      0.300      0.000 
     156      0.000      0.000      0.300      0.000 
     157      0.000      0.000      0.300      0.000 
     158      0.000      0.000      0.300      0.000 
     159      0.000      0.000      0.300      0.000 
     160      0.000      0.000      0.300      0.000 
     161      0.000      0.000      0.300      0.000 
     162      0.000      0.000      0.300      0.000 
     163      0.000      0.000      0.300      0.000 
     164      0.000      0.000      0.300      0.000 
     165      0.000      0.000      0.300      0.000 
     166      0.000      0.000      0.300      0.000 
     167      0.000      0.000      0.300      0.000 
     168      0.000      0.000      0.300      0.000 
     169      0.000      0.000      0.300      0.000 
     170      0.000      0.000      0.300      0.000 
     171      0.000      0.000      0.300      0.000 
     172      0.000      0.000      0.300      0.000 
     173      0.000      0.000      0.300      0.000 
     174      0.000      0.000      0.300      0.000 
     175      0.000      0.000      0.300      0.000 
     176      0.000      0.000      0.300      0.000 
     177      0.000      0.000      0.300      0.000 
     178      0.000      0.000      0.300      0.000 
     179      0.000      0.000      0.300      0.000 
     180      0.000      0.000      0.300      0.000 
     181      0.000      0.000      0.300      0.000 
     182      0.000      0.000      0.300      0.000 
     183      0.000      0.000      0.300      0.000 
     184      0.000      0.000      0.300      0.000 
     185      0.000      0.000      0.300      0.000 
     186      0.000      0.000      0.300      0.000 
     187      0.000      0.000      0.300      0.000 
     188      0.000      0.000      0.300      0.000 
     189      0.000      0.000      0.300      0.000 
     190      0.000      0.000      0.300      0.000 
     191      0.000      0.000      0.300      0.000 
     192      0.000      0.000      0.300      0.000 
     193      0.000      0.000      0.300      0.000 
     194      0.000      0.000      0.300      0.000 
     195      0.000      0.000      0.300      0.000 
     196      0.000      0.000      0.300      0.000 
     197      0.000      0.000      0.300      0.000 
     198      0.000      0.000      0.300      0.000 
     199      0.000      0.000      0.300      0.000 
     200      0.000      0.000      0.300      0.000 
     201      0.000      0.000      0.300      0.000 
     202      0.000      0.000      0.300      0.000 
     203      0.000      0.000      0.300      0.000 
     204      0.000      0.000      0.300      0.000 
     205      0.000      0.000      0.300      0.000 
     206      0.000      0.000      0.300      0.000 
     207      0.000      0.000      0.300      0.000 
     208      0.000      0.000      0.300      0.000 
     209      0.000      0.000      0.300      0.000 
     210      0.000      0.000      0.300      0.000 
     211      0.000      0.000      0.300      0.000 
     212      0.000      0.000      0.300      0.000 
     213      0.000      0.000      0.300      0.000 
     214      0.000      0.000      0.300      0.000 
     215      0.000      0.000      0.300      0.000 
     216      0.000      0.000      0.300      0.000 
     217      0.000      0.000      0.300      0.000 
     218      0.000      0.000      0.300      0.000 
     219      0.000      0.000      0.300      0.000 
     220      0.000      0.000      0.300      0.000 
     221      0.000      0.000      0.300      0.000 
     222      0.000      0.000      0.300      0.000 
     223      0.000      0.000      0.300      0.000 
     224      0.000      0.000      0.300      0.000 
     225      0.000      0.000      0.300      0.000 
     226      0.000      0.000      0.300      0.000 
     227      0.000      0.000      0.300      0.000 
     228      0.000      0.000      0.300      0.000 
     229      0.000      0.000      0.300      0.000 
     230      0.000      0.000      0.300      0.000 
     231      0.000      0.000      0.300      0.000 
     232      0.000      0.000      0.300      0.000 
     233      0.000      0.000      0.300      0.000 
     234      0.000      0.000      0.300      0.000 
     235      0.000      0.000      0.300      0.000 
     236      0.000      0.000      0.300      0.000 
     237      0.000      0.000      0.300      0.000 
     238      0.000      0.000      0.300      0.000 
     239      0.000      0.000      0.300      0.000 
     240      0.000      0.000      0.300      0.000 
     241      0.000      0.000      0.300      0.000 
     242      0.000      0.000      0.300      0.000 
     243      0.000      0.000      0.300      0.000 
     244      0.000      0.000      0.300      0.000 
     245      0.000      0.000      0.300      0.000 
     246      0.000      0.000      0.300      0.000 
     247      0.000      0.000      0.300      0.000 
     248      0.000      0.000      0.300      0.000 
     249      0.000      0.000      0.300      0.000 
     250      0.000      0.000      0.300      0.000 
     251      0.000      0.000      0.300      0.000 
     252      0.000      0.000      0.300      0.000 
     253      0.000      0.000      0.300      0.000 
     254      0.000      0.000      0.300      0.000 
     255      0.000      0.000      0.300      0.000 
     256      0.000      0.000      0.300      0.000 
     257      0.000      0.000      0.300      0.000 
     258      0.000      0.000      0.300      0.000 
     259      0.000      0.000      0.300      0.000 
     260      0.000      0.000      0.300      0.000 
     261      0.000      0.000      0.300      0.000 

Improper Coeffs 

       1      0.000      -1       2 
       2      0.000      -1       2 
       3      0.000      -1       2 
       4      0.000      -1       2 
       5      0.000      -1       2 
       6      0.000      -1       2 
       7      0.000      -1       2 
       8      0.000      -1       2 
       9      0.000      -1       2 
      10      0.000      -1       2 
      11      0.000      -1       2 
      12      0.000      -1       2 
      13      0.000      -1       2 
      14      0.000      -1       2 
      15      0.000      -1       2 
      16      0.000      -1       2 
      17      0.000      -1       2 
      18      0.000      -1       2 
      19      0.000      -1       2 
      20      0.000      -1       2 
      21      0.000      -1       2 
      22      0.000      -1       2 
      23      0.000      -1       2 
      24      0.000      -1       2 
      25      0.000      -1       2 
      26      0.000      -1       2 
      27      0.000      -1       2 
      28      0.000      -1       2 
      29      0.000      -1       2 
      30      0.000      -1       2 
      31      0.000      -1       2 
      32      0.000      -1       2 
      33      0.000      -1       2 
      34      0.000      -1       2 
      35      0.000      -1       2 
      36      0.000      -1       2 
      37      0.000      -1       2 
      38      0.000      -1       2 
      39      0.000      -1       2 
      40      0.000      -1       2 
      41      0.000      -1       2 
      42      0.000      -1       2 
      43      0.000      -1       2 
      44      0.000      -1       2 
      45      0.000      -1       2 
      46      0.000      -1       2 
      47      0.000      -1       2 
      48      0.000      -1       2 
      49      0.000      -1       2 
      50      0.000      -1       2 
      51      0.000      -1       2 
      52      0.000      -1       2 
      53      0.000      -1       2 
      54      0.000      -1       2 
      55      0.000      -1       2 
      56      0.000      -1       2 
      57      0.000      -1       2 
      58      0.000      -1       2 
      59      0.000      -1       2 
      60      0.000      -1       2 

Atoms 

     1      1      1 -0.23890000    1.000  1.00000  0.00000
     2      1      2 -0.17960000   -0.519  1.00000  0.00000
     3      1      3 -0.17890000   -1.068  1.00000  1.42265
     4      1      4 -0.17950000   -2.591  1.00180  1.42265
     5      1      5 -0.18010000   -3.127  1.00358  2.85194
     6      1      6 -0.17990000   -4.650  1.00358  2.85520
     7      1      7 -0.18010000   -5.179  1.00717  4.28325
     8      1      8 -0.18030000   -6.701  1.00536  4.28489
     9      1      9 -0.18030000   -7.227  1.01075  5.71174
    10      1     10 -0.18050000   -8.748  1.00713  5.71014
    11      1     11 -0.18060000   -9.275  1.01071  7.13519
    12      1     12 -0.18060000  -10.795  1.00527  7.13036
    13      1     13 -0.18070000  -11.321  1.01066  8.55561
    14      1     14 -0.18070000  -12.839  1.00703  8.55077
    15      1     15 -0.18070000  -13.364  1.01423  9.97607
    16      1     16 -0.18070000  -14.883  1.00879  9.97124
    17      1     17 -0.18070000  -15.407  1.01418 11.39669
    18      1     18 -0.18070000  -16.926  1.00695 11.39349
    19      1     19 -0.18050000  -17.450  1.01415 12.81896
    20      1     20 -0.18060000  -18.970  1.00512 12.81577
    21      1     21 -0.18060000  -19.496  1.01411 14.24158
    22      1     22 -0.18040000  -21.017  1.00328 14.24164
    23      1     23 -0.18020000  -21.543  1.01048 15.66779
    24      1     24 -0.18000000  -23.065  1.00148 15.67108
    25      1     25 -0.17980000  -23.594  1.01047 17.09893
    26      1     26 -0.17990000  -25.117  1.00328 17.10384
    27      1     27 -0.17970000  -25.653  1.01404 18.53123
    28      1     28 -0.17900000  -27.178  1.00861 18.53287
    29      1     29 -0.17950000  -27.724  1.01751 19.95734
    30      1     30 -0.23890000  -29.243  1.01030 19.95736
    31      1     31 0.08070000    1.379  1.00130 -1.02633
    32      1     32 0.08070000    1.390  0.11109  0.50664
    33      1     33 0.08070000    1.390  1.88748  0.50880
    34      1     34 0.08840000   -0.881  0.11692 -0.53941
    35      1     35 0.08840000   -0.880  1.88347 -0.53965
    36      1     36 0.08950000   -0.698  1.88154  1.96154
    37      1     37 0.08950000   -0.700  0.11579  1.95962
    38      1     38 0.08970000   -2.964  0.11797  0.89057
    39      1     39 0.08970000   -2.962  1.88575  0.88907
    40      1     40 0.08980000   -2.756  1.88693  3.38494
    41      1     41 0.08980000   -2.757  0.12035  3.38600
    42      1     42 0.09000000   -5.023  0.11896  2.32435
    43      1     43 0.09000000   -5.023  1.88562  2.31984
    44      1     44 0.09010000   -4.809  1.89218  4.81378
    45      1     45 0.09010000   -4.807  0.12536  4.81877
    46      1     46 0.09010000   -7.072  0.11966  3.75531
    47      1     47 0.09010000   -7.073  1.88628  3.74890
    48      1     48 0.09020000   -6.858  1.89773  6.24116
    49      1     49 0.09020000   -6.853  0.13092  6.24871
    50      1     50 0.09020000   -9.117  0.12078  5.18006
    51      1     51 0.09020000   -9.121  1.88767  5.17291
    52      1     52 0.09020000   -8.907  1.89714  7.66614
    53      1     53 0.09020000   -8.902  0.13027  7.67263
    54      1     54 0.09030000  -11.162  0.11747  6.60093
    55      1     55 0.09030000  -11.168  1.88501  6.59192
    56      1     56 0.09030000  -10.952  1.89769  9.08506
    57      1     57 0.09030000  -10.948  0.13036  9.09329
    58      1     58 0.09040000  -13.208  0.11929  8.02211
    59      1     59 0.09040000  -13.212  1.88676  8.01160
    60      1     60 0.09040000  -12.996  1.90264 10.50365
    61      1     61 0.09040000  -12.989  0.13525 10.51487
    62      1     62 0.09040000  -15.250  0.12106  9.44185
    63      1     63 0.09040000  -15.256  1.88837  9.43289
    64      1     64 0.09040000  -15.040  1.90262 11.92501
    65      1     65 0.09040000  -15.031  0.13512 11.93482
    66      1     66 0.09030000  -17.293  0.11835 10.86488
    67      1     67 0.09030000  -17.301  1.88537 10.85392
    68      1     68 0.09040000  -17.084  1.90394 13.34578
    69      1     69 0.09040000  -17.074  0.13650 13.35855
    70      1     70 0.09030000  -19.334  0.11413 12.28944
    71      1     71 0.09030000  -19.346  1.88140 12.27376
    72      1     72 0.09020000  -19.130  1.90486 14.76663
    73      1     73 0.09020000  -19.118  0.13743 14.78213
    74      1     74 0.09010000  -21.381  0.11268 13.71419
    75      1     75 0.09010000  -21.393  1.87959 13.69974
    76      1     76 0.09000000  -21.175  1.89976 16.19384
    77      1     77 0.09000000  -21.164  0.13321 16.20669
    78      1     78 0.09000000  -23.431  0.11157 15.14417
    79      1     79 0.09000000  -23.440  1.87817 15.12900
    80      1     80 0.08990000  -23.224  1.89984 17.62354
    81      1     81 0.08990000  -23.215  0.13321 17.63779
    82      1     82 0.08970000  -25.482  0.11336 16.57663
    83      1     83 0.08970000  -25.491  1.87968 16.56018
    84      1     84 0.08970000  -25.283  1.90388 19.05584
    85      1     85 0.08970000  -25.277  0.13634 19.07152
    86      1     86 0.08960000  -27.542  0.11977 18.00319
    87      1     87 0.08960000  -27.548  1.88610 17.98867
    88      1     88 0.08860000  -27.366  1.90719 20.48773
    89      1     89 0.08860000  -27.358  0.14028 20.50177
    90      1     90 0.08070000  -29.638  1.89185 19.44139
    91      1     91 0.08070000  -29.621  1.01808 20.98407
    92      1     92 0.08070000  -29.629  0.11692 19.45578

Bonds 

     1      1      2      1
     2      2      3      2
     3      3      4      3
     4      4      5      4
     5      5      6      5
     6      6      7      6
     7      7      8      7
     8      8      9      8
     9      9     10      9
    10     10     11     10
    11     11     12     11
    12     12     13     12
    13     13     14     13
    14     14     15     14
    15     15     16     15
    16     16     17     16
    17     17     18     17
    18     18     19     18
    19     19     20     19
    20     20     21     20
    21     21     22     21
    22     22     23     22
    23     23     24     23
    24     24     25     24
    25     25     26     25
    26     26     27     26
    27     27     28     27
    28     28     29     28
    29     29     30     29
    30     30     31      1
    31     31     32      1
    32     32     33      1
    33     33     34      2
    34     34     35      2
    35     35     36      3
    36     36     37      3
    37     37     38      4
    38     38     39      4
    39     39     40      5
    40     40     41      5
    41     41     42      6
    42     42     43      6
    43     43     44      7
    44     44     45      7
    45     45     46      8
    46     46     47      8
    47     47     48      9
    48     48     49      9
    49     49     50     10
    50     50     51     10
    51     51     52     11
    52     52     53     11
    53     53     54     12
    54     54     55     12
    55     55     56     13
    56     56     57     13
    57     57     58     14
    58     58     59     14
    59     59     60     15
    60     60     61     15
    61     61     62     16
    62     62     63     16
    63     63     64     17
    64     64     65     17
    65     65     66     18
    66     66     67     18
    67     67     68     19
    68     68     69     19
    69     69     70     20
    70     70     71     20
    71     71     72     21
    72     72     73     21
    73     73     74     22
    74     74     75     22
    75     75     76     23
    76     76     77     23
    77     77     78     24
    78     78     79     24
    79     79     80     25
    80     80     81     25
    81     81     82     26
    82     82     83     26
    83     83     84     27
    84     84     85     27
    85     85     86     28
    86     86     87     28
    87     87     88     29
    88     88     89     29
    89     89     90     30
    90     90     91     30
    91     91     92     30

Angles 

     1      1      1      2      3
     2      2      2      3      4
     3      3      3      4      5
     4      4      4      5      6
     5      5      5      6      7
     6      6      6      7      8
     7      7      7      8      9
     8      8      8      9     10
     9      9      9     10     11
    10     10     10     11     12
    11     11     11     12     13
    12     12     12     13     14
    13     13     13     14     15
    14     14     14     15     16
    15     15     15     16     17
    16     16     16     17     18
    17     17     17     18     19
    18     18     18     19     20
    19     19     19     20     21
    20     20     20     21     22
    21     21     21     22     23
    22     22     22     23     24
    23     23     23     24     25
    24     24     24     25     26
    25     25     25     26     27
    26     26     26     27     28
    27     27     27     28     29
    28     28     28     29     30
    29     29      2      1     31
    30     30      2      1     32
    31     31      2      1     33
    32     32      1      2     34
    33     33      1      2     35
    34     34      2      3     36
    35     35      2      3     37
    36     36      3      4     38
    37     37      3      4     39
    38     38      4      5     40
    39     39      4      5     41
    40     40      5      6     42
    41     41      5      6     43
    42     42      6      7     44
    43     43      6      7     45
    44     44      7      8     46
    45     45      7      8     47
    46     46      8      9     48
    47     47      8      9     49
    48     48      9     10     50
    49     49      9     10     51
    50     50     10     11     52
    51     51     10     11     53
    52     52     11     12     54
    53     53     11     12     55
    54     54     12     13     56
    55     55     12     13     57
    56     56     13     14     58
    57     57     13     14     59
    58     58     14     15     60
    59     59     14     15     61
    60     60     15     16     62
    61     61     15     16     63
    62     62     16     17     64
    63     63     16     17     65
    64     64     17     18     66
    65     65     17     18     67
    66     66     18     19     68
    67     67     18     19     69
    68     68     19     20     70
    69     69     19     20     71
    70     70     20     21     72
    71     71     20     21     73
    72     72     21     22     74
    73     73     21     22     75
    74     74     22     23     76
    75     75     22     23     77
    76     76     23     24     78
    77     77     23     24     79
    78     78     24     25     80
    79     79     24     25     81
    80     80     25     26     82
    81     81     25     26     83
    82     82     26     27     84
    83     83     26     27     85
    84     84     27     28     86
    85     85     27     28     87
    86     86     28     29     88
    87     87     28     29     89
    88     88     29     30     90
    89     89     29     30     91
    90     90     29     30     92
    91     91     84     27     85
    92     92     29     28     87
    93     93     86     28     87
    94     94     30     29     89
    95     95      7      6     43
    96     96     38      4     39
    97     97     31      1     33
    98     98     20     19     69
    99     99      5      4     39
   100    100     11     10     50
   101    101     17     16     62
   102    102     40      5     41
   103    103      9      8     47
   104    104     15     14     59
   105    105     54     12     55
   106    106     26     25     81
   107    107     18     17     65
   108    108     13     12     55
   109    109     70     20     71
   110    110     46      8     47
   111    111     52     11     53
   112    112     23     22     75
   113    113     34      2     35
   114    114     56     13     57
   115    115     42      6     43
   116    116     21     20     70
   117    117     14     13     56
   118    118     10      9     48
   119    119     31      1     32
   120    120     25     24     79
   121    121     16     15     61
   122    122     15     14     58
   123    123     32      1     33
   124    124      3      2     35
   125    125     25     24     78
   126    126      4      3     37
   127    127     64     17     65
   128    128     90     30     91
   129    129     72     21     73
   130    130     19     18     66
   131    131     12     11     53
   132    132     91     30     92
   133    133     26     25     80
   134    134     18     17     64
   135    135     14     13     57
   136    136     22     21     73
   137    137     78     24     79
   138    138      6      5     41
   139    139     58     14     59
   140    140     28     27     84
   141    141      3      2     34
   142    142     22     21     72
   143    143      8      7     45
   144    144     44      7     45
   145    145      8      7     44
   146    146     88     29     89
   147    147     48      9     49
   148    148     90     30     92
   149    149     36      3     37
   150    150     80     25     81
   151    151     62     16     63
   152    152     16     15     60
   153    153     23     22     74
   154    154      4      3     36
   155    155     21     20     71
   156    156     66     18     67
   157    157      9      8     46
   158    158     20     19     68
   159    159     60     15     61
   160    160     13     12     54
   161    161     30     29     88
   162    162     28     27     85
   163    163     82     26     83
   164    164     50     10     51
   165    165     29     28     86
   166    166      5      4     38
   167    167     19     18     67
   168    168     27     26     83
   169    169     27     26     82
   170    170     10      9     49
   171    171     76     23     77
   172    172      7      6     42
   173    173     68     19     69
   174    174     24     23     77
   175    175     24     23     76
   176    176     12     11     52
   177    177     74     22     75
   178    178     11     10     51
   179    179     17     16     63
   180    180      6      5     40

Dihedrals

     1      1      4      3      2      1 
     2      2      5      4      3      2 
     3      3      6      5      4      3 
     4      4      7      6      5      4 
     5      5      8      7      6      5 
     6      6      9      8      7      6 
     7      7     10      9      8      7 
     8      8     11     10      9      8 
     9      9     12     11     10      9 
    10     10     13     12     11     10 
    11     11     14     13     12     11 
    12     12     15     14     13     12 
    13     13     16     15     14     13 
    14     14     17     16     15     14 
    15     15     18     17     16     15 
    16     16     19     18     17     16 
    17     17     20     19     18     17 
    18     18     21     20     19     18 
    19     19     22     21     20     19 
    20     20     23     22     21     20 
    21     21     24     23     22     21 
    22     22     25     24     23     22 
    23     23     26     25     24     23 
    24     24     27     26     25     24 
    25     25     28     27     26     25 
    26     26     29     28     27     26 
    27     27     30     29     28     27 
    28     28     31      1      2      3 
    29     29     90     30     29     28 
    30     30     92     30     29     88 
    31     31     77     23     22     75 
    32     32     35      2      1     31 
    33     33     61     15     14     58 
    34     34     67     18     19     20 
    35     35     55     12     13     14 
    36     36     86     28     27     84 
    37     37     63     16     15     14 
    38     38     47      8      9     10 
    39     39     60     15     16     17 
    40     40     71     20     19     69 
    41     41     88     29     28     86 
    42     42     89     29     28     87 
    43     43     58     14     13     12 
    44     44     72     21     20     71 
    45     45     73     21     20     70 
    46     46     62     16     15     60 
    47     47     41      5      4     38 
    48     48     77     23     24     25 
    49     49     79     24     23     22 
    50     50     71     20     21     22 
    51     51     66     18     17     64 
    52     52     40      5      4      3 
    53     53     58     14     13     57 
    54     54     54     12     11     10 
    55     55     45      7      8      9 
    56     56     60     15     14     59 
    57     57     46      8      7      6 
    58     58     84     27     26     82 
    59     59     37      3      4      5 
    60     60     67     18     17     65 
    61     61     60     15     14     13 
    62     62     61     15     16     17 
    63     63     92     30     29     89 
    64     64     69     19     18     66 
    65     65     39      4      5      6 
    66     66     65     17     16     15 
    67     67     54     12     11     53 
    68     68     62     16     17     18 
    69     69     64     17     16     15 
    70     70     76     23     22     21 
    71     71     39      4      3     36 
    72     72     43      6      7      8 
    73     73     34      2      1     31 
    74     74     63     16     17     18 
    75     75     43      6      5     41 
    76     76     49      9      8     47 
    77     77     76     23     24     25 
    78     78     41      5      6      7 
    79     79     51     10     11     12 
    80     80     37      3      2      1 
    81     81     69     19     18     17 
    82     82     55     12     11     53 
    83     83     34      2      3      4 
    84     84     90     30     29     88 
    85     85     35      2      3      4 
    86     86     79     24     23     77 
    87     87     50     10     11     12 
    88     88     81     25     24     78 
    89     89     53     11     10      9 
    90     90     83     26     25     81 
    91     91     57     13     12     55 
    92     92     65     17     18     19 
    93     93     64     17     16     62 
    94     94     91     30     29     88 
    95     95     90     30     29     89 
    96     96     78     24     23     77 
    97     97     79     24     23     76 
    98     98     49      9     10     11 
    99     99     38      4      3     37 
   100    100     82     26     25     80 
   101    101     32      1      2      3 
   102    102     74     22     21     73 
   103    103     69     19     18     67 
   104    104     40      5      6      7 
   105    105     82     26     25     81 
   106    106     35      2      1     33 
   107    107     78     24     23     76 
   108    108     66     18     19     20 
   109    109     86     28     27     26 
   110    110     72     21     20     70 
   111    111     75     22     23     24 
   112    112     59     14     15     16 
   113    113     55     12     11     52 
   114    114     53     11     10     51 
   115    115     91     30     29     28 
   116    116     54     12     11     52 
   117    117     61     15     14     59 
   118    118     58     14     13     56 
   119    119     35      2      1     32 
   120    120     34      2      1     33 
   121    121     56     13     12     11 
   122    122     73     21     22     23 
   123    123     74     22     21     20 
   124    124     53     11     10     50 
   125    125     64     17     18     19 
   126    126     46      8      7     45 
   127    127     67     18     17     16 
   128    128     84     27     26     83 
   129    129     50     10      9     49 
   130    130     69     19     20     21 
   131    131     68     19     18     67 
   132    132     47      8      7      6 
   133    133     70     20     19     18 
   134    134     44      7      6      5 
   135    135     72     21     20     19 
   136    136     45      7      6     43 
   137    137     70     20     19     68 
   138    138     43      6      5      4 
   139    139     44      7      8      9 
   140    140     50     10      9      8 
   141    141     37      3      2     35 
   142    142     53     11     12     13 
   143    143     48      9      8     47 
   144    144     47      8      7     44 
   145    145     48      9      8     46 
   146    146     38      4      3      2 
   147    147     75     22     21     72 
   148    148     37      3      2     34 
   149    149     36      3      2      1 
   150    150     34      2      1     32 
   151    151     91     30     29     89 
   152    152     40      5      4     39 
   153    153     74     22     23     24 
   154    154     39      4      3     37 
   155    155     59     14     13     56 
   156    156     81     25     24     79 
   157    157     74     22     21     72 
   158    158     62     16     15     61 
   159    159     42      6      7      8 
   160    160     86     28     29     30 
   161    161     59     14     13     57 
   162    162     82     26     27     28 
   163    163     89     29     28     27 
   164    164     71     20     19     18 
   165    165     39      4      3      2 
   166    166     81     25     26     27 
   167    167     51     10      9     48 
   168    168     68     19     20     21 
   169    169     87     28     27     84 
   170    170     61     15     14     13 
   171    171     48      9     10     11 
   172    172     58     14     15     16 
   173    173     44      7      6     43 
   174    174     77     23     22     21 
   175    175     48      9      8      7 
   176    176     79     24     25     26 
   177    177     38      4      3     36 
   178    178     75     22     21     20 
   179    179     72     21     22     23 
   180    180     80     25     24     78 
   181    181     62     16     15     14 
   182    182     40      5      4     38 
   183    183     46      8      7     44 
   184    184     68     19     18     17 
   185    185     52     11     12     13 
   186    186     60     15     14     58 
   187    187     42      6      5     40 
   188    188     43      6      5     40 
   189    189     42      6      5     41 
   190    190     86     28     27     85 
   191    191     45      7      6     42 
   192    192     41      5      4      3 
   193    193     66     18     17     16 
   194    194     85     27     26     82 
   195    195     85     27     26     25 
   196    196     45      7      6      5 
   197    197     44      7      6     42 
   198    198     92     30     29     28 
   199    199     65     17     16     62 
   200    200     83     26     27     28 
   201    201     51     10      9      8 
   202    202     77     23     22     74 
   203    203     76     23     22     75 
   204    204     65     17     16     63 
   205    205     80     25     24     79 
   206    206     64     17     16     63 
   207    207     52     11     10     51 
   208    208     88     29     28     27 
   209    209     63     16     15     61 
   210    210     50     10      9     48 
   211    211     47      8      7     45 
   212    212     41      5      4     39 
   213    213     89     29     28     86 
   214    214     84     27     26     25 
   215    215     85     27     26     83 
   216    216     85     27     28     29 
   217    217     87     28     27     26 
   218    218     75     22     21     73 
   219    219     84     27     28     29 
   220    220     33      1      2      3 
   221    221     87     28     27     85 
   222    222     38      4      5      6 
   223    223     42      6      5      4 
   224    224     57     13     14     15 
   225    225     88     29     28     87 
   226    226     68     19     18     66 
   227    227     87     28     29     30 
   228    228     52     11     10      9 
   229    229     51     10      9     49 
   230    230     76     23     22     74 
   231    231     56     13     12     54 
   232    232     67     18     17     64 
   233    233     66     18     17     65 
   234    234     83     26     25     24 
   235    235     36      3      2     35 
   236    236     59     14     13     12 
   237    237     55     12     11     10 
   238    238     56     13     14     15 
   239    239     70     20     21     22 
   240    240     70     20     19     69 
   241    241     71     20     19     68 
   242    242     52     11     10     50 
   243    243     54     12     13     14 
   244    244     57     13     12     11 
   245    245     56     13     12     55 
   246    246     57     13     12     54 
   247    247     36      3      2     34 
   248    248     36      3      4      5 
   249    249     49      9      8     46 
   250    250     81     25     24     23 
   251    251     63     16     15     60 
   252    252     73     21     20     71 
   253    253     49      9      8      7 
   254    254     46      8      9     10 
   255    255     73     21     20     19 
   256    256     80     25     26     27 
   257    257     78     24     23     22 
   258    258     80     25     24     23 
   259    259     83     26     25     80 
   260    260     78     24     25     26 
   261    261     82     26     25     24 

Impropers

     1      1      1      2     31     32 
     2      2      1     33     31      2 
     3      3      2      1     34      3 
     4      4      2      1     35      3 
     5      5      3      4      2     36 
     6      6      3      2      4     37 
     7      7      4      3      5     38 
     8      8      4      3      5     39 
     9      9      5      4      6     40 
    10     10      5     41      4      6 
    11     11      6     42      5      7 
    12     12      6     43      5      7 
    13     13      7     44      6      8 
    14     14      7     45      6      8 
    15     15      8      9     46      7 
    16     16      8      9      7     47 
    17     17      9     10      8     48 
    18     18      9     49     10      8 
    19     19     10      9     50     11 
    20     20     10      9     51     11 
    21     21     11     12     10     52 
    22     22     11     10     12     53 
    23     23     12     11     13     54 
    24     24     12     11     13     55 
    25     25     13     12     14     56 
    26     26     13     57     12     14 
    27     27     14     58     13     15 
    28     28     14     59     13     15 
    29     29     15     60     14     16 
    30     30     15     61     14     16 
    31     31     16     17     62     15 
    32     32     16     17     15     63 
    33     33     17     18     16     64 
    34     34     17     65     18     16 
    35     35     18     17     66     19 
    36     36     18     17     67     19 
    37     37     19     20     18     68 
    38     38     19     18     20     69 
    39     39     20     19     21     70 
    40     40     20     19     21     71 
    41     41     21     20     22     72 
    42     42     21     73     20     22 
    43     43     22     74     21     23 
    44     44     22     75     21     23 
    45     45     23     76     22     24 
    46     46     23     77     22     24 
    47     47     24     25     78     23 
    48     48     24     25     23     79 
    49     49     25     26     24     80 
    50     50     25     81     26     24 
    51     51     26     25     82     27 
    52     52     26     25     83     27 
    53     53     27     28     26     84 
    54     54     27     26     28     85 
    55     55     28     27     29     86 
    56     56     28     27     29     87 
    57     57     29     28     30     88 
    58     58     29     89     28     30 
    59     59     30     90     91     29 
    60     60     30     90     92     29 

