LAMMPS data file Created by LigParGen - (Written by Leela S. Dodda)

      92 atoms
      91 bonds
     178 angles
     260 dihedrals
      59 impropers
 
      92 atom types
      91 bond types
     178 angle types
     260 dihedral types
      59 improper types
 
  -29.997520    20.002480 xlo xhi
    0.111330    50.111330 ylo yhi
   -1.026610    48.973390 zlo zhi

Masses

       1     12.011  
       2     12.011  
       3     12.011  
       4     12.011  
       5     12.011  
       6     12.011  
       7     12.011  
       8     12.011  
       9     12.011  
      10     12.011  
      11     12.011  
      12     12.011  
      13     12.011  
      14     12.011  
      15     12.011  
      16     12.011  
      17     12.011  
      18     12.011  
      19     12.011  
      20     12.011  
      21     12.011  
      22     12.011  
      23     12.011  
      24     12.011  
      25     12.011  
      26     12.011  
      27     12.011  
      28     12.011  
      29     12.011  
      30     12.011  
      31     15.999  
      32     15.999  
      33      1.008  
      34      1.008  
      35      1.008  
      36      1.008  
      37      1.008  
      38      1.008  
      39      1.008  
      40      1.008  
      41      1.008  
      42      1.008  
      43      1.008  
      44      1.008  
      45      1.008  
      46      1.008  
      47      1.008  
      48      1.008  
      49      1.008  
      50      1.008  
      51      1.008  
      52      1.008  
      53      1.008  
      54      1.008  
      55      1.008  
      56      1.008  
      57      1.008  
      58      1.008  
      59      1.008  
      60      1.008  
      61      1.008  
      62      1.008  
      63      1.008  
      64      1.008  
      65      1.008  
      66      1.008  
      67      1.008  
      68      1.008  
      69      1.008  
      70      1.008  
      71      1.008  
      72      1.008  
      73      1.008  
      74      1.008  
      75      1.008  
      76      1.008  
      77      1.008  
      78      1.008  
      79      1.008  
      80      1.008  
      81      1.008  
      82      1.008  
      83      1.008  
      84      1.008  
      85      1.008  
      86      1.008  
      87      1.008  
      88      1.008  
      89      1.008  
      90      1.008  
      91      1.008  
      92      1.008  

Pair Coeffs 

       1      0.066  3.5000000 
       2      0.066  3.5000000 
       3      0.066  3.5000000 
       4      0.066  3.5000000 
       5      0.066  3.5000000 
       6      0.066  3.5000000 
       7      0.066  3.5000000 
       8      0.066  3.5000000 
       9      0.066  3.5000000 
      10      0.066  3.5000000 
      11      0.066  3.5000000 
      12      0.066  3.5000000 
      13      0.066  3.5000000 
      14      0.066  3.5000000 
      15      0.066  3.5000000 
      16      0.066  3.5000000 
      17      0.066  3.5000000 
      18      0.066  3.5000000 
      19      0.066  3.5000000 
      20      0.066  3.5000000 
      21      0.066  3.5000000 
      22      0.066  3.5000000 
      23      0.066  3.5000000 
      24      0.066  3.5000000 
      25      0.066  3.5000000 
      26      0.066  3.5000000 
      27      0.066  3.5000000 
      28      0.066  3.5000000 
      29      0.066  3.5000000 
      30      0.070  3.5500000 
      31      0.210  2.9600000 
      32      0.170  3.1200000 
      33      0.030  2.5000000 
      34      0.030  2.5000000 
      35      0.030  2.5000000 
      36      0.030  2.5000000 
      37      0.030  2.5000000 
      38      0.030  2.5000000 
      39      0.030  2.5000000 
      40      0.030  2.5000000 
      41      0.030  2.5000000 
      42      0.030  2.5000000 
      43      0.030  2.5000000 
      44      0.030  2.5000000 
      45      0.030  2.5000000 
      46      0.030  2.5000000 
      47      0.030  2.5000000 
      48      0.030  2.5000000 
      49      0.030  2.5000000 
      50      0.030  2.5000000 
      51      0.030  2.5000000 
      52      0.030  2.5000000 
      53      0.030  2.5000000 
      54      0.030  2.5000000 
      55      0.030  2.5000000 
      56      0.030  2.5000000 
      57      0.030  2.5000000 
      58      0.030  2.5000000 
      59      0.030  2.5000000 
      60      0.030  2.5000000 
      61      0.030  2.5000000 
      62      0.030  2.5000000 
      63      0.030  2.5000000 
      64      0.030  2.5000000 
      65      0.030  2.5000000 
      66      0.030  2.5000000 
      67      0.030  2.5000000 
      68      0.030  2.5000000 
      69      0.030  2.5000000 
      70      0.030  2.5000000 
      71      0.030  2.5000000 
      72      0.030  2.5000000 
      73      0.030  2.5000000 
      74      0.030  2.5000000 
      75      0.030  2.5000000 
      76      0.030  2.5000000 
      77      0.030  2.5000000 
      78      0.030  2.5000000 
      79      0.030  2.5000000 
      80      0.030  2.5000000 
      81      0.030  2.5000000 
      82      0.030  2.5000000 
      83      0.030  2.5000000 
      84      0.030  2.5000000 
      85      0.030  2.5000000 
      86      0.030  2.5000000 
      87      0.030  2.5000000 
      88      0.030  2.5000000 
      89      0.030  2.5000000 
      90      0.030  2.5000000 
      91      0.030  2.5000000 
      92      0.000  0.0000000 

Bond Coeffs 

       1   268.0000     1.5290 
       2   268.0000     1.5290 
       3   268.0000     1.5290 
       4   268.0000     1.5290 
       5   268.0000     1.5290 
       6   268.0000     1.5290 
       7   268.0000     1.5290 
       8   268.0000     1.5290 
       9   268.0000     1.5290 
      10   268.0000     1.5290 
      11   268.0000     1.5290 
      12   268.0000     1.5290 
      13   268.0000     1.5290 
      14   268.0000     1.5290 
      15   268.0000     1.5290 
      16   268.0000     1.5290 
      17   268.0000     1.5290 
      18   268.0000     1.5290 
      19   268.0000     1.5290 
      20   268.0000     1.5290 
      21   268.0000     1.5290 
      22   268.0000     1.5290 
      23   268.0000     1.5290 
      24   268.0000     1.5290 
      25   268.0000     1.5290 
      26   268.0000     1.5290 
      27   268.0000     1.5290 
      28   268.0000     1.5290 
      29   317.0000     1.5220 
      30   570.0000     1.2290 
      31   450.0000     1.3640 
      32   340.0000     1.0900 
      33   340.0000     1.0900 
      34   340.0000     1.0900 
      35   340.0000     1.0900 
      36   340.0000     1.0900 
      37   340.0000     1.0900 
      38   340.0000     1.0900 
      39   340.0000     1.0900 
      40   340.0000     1.0900 
      41   340.0000     1.0900 
      42   340.0000     1.0900 
      43   340.0000     1.0900 
      44   340.0000     1.0900 
      45   340.0000     1.0900 
      46   340.0000     1.0900 
      47   340.0000     1.0900 
      48   340.0000     1.0900 
      49   340.0000     1.0900 
      50   340.0000     1.0900 
      51   340.0000     1.0900 
      52   340.0000     1.0900 
      53   340.0000     1.0900 
      54   340.0000     1.0900 
      55   340.0000     1.0900 
      56   340.0000     1.0900 
      57   340.0000     1.0900 
      58   340.0000     1.0900 
      59   340.0000     1.0900 
      60   340.0000     1.0900 
      61   340.0000     1.0900 
      62   340.0000     1.0900 
      63   340.0000     1.0900 
      64   340.0000     1.0900 
      65   340.0000     1.0900 
      66   340.0000     1.0900 
      67   340.0000     1.0900 
      68   340.0000     1.0900 
      69   340.0000     1.0900 
      70   340.0000     1.0900 
      71   340.0000     1.0900 
      72   340.0000     1.0900 
      73   340.0000     1.0900 
      74   340.0000     1.0900 
      75   340.0000     1.0900 
      76   340.0000     1.0900 
      77   340.0000     1.0900 
      78   340.0000     1.0900 
      79   340.0000     1.0900 
      80   340.0000     1.0900 
      81   340.0000     1.0900 
      82   340.0000     1.0900 
      83   340.0000     1.0900 
      84   340.0000     1.0900 
      85   340.0000     1.0900 
      86   340.0000     1.0900 
      87   340.0000     1.0900 
      88   340.0000     1.0900 
      89   340.0000     1.0900 
      90   340.0000     1.0900 
      91   553.0000     0.9450 

Angle Coeffs 

       1     58.350    112.700
       2     58.350    112.700
       3     58.350    112.700
       4     58.350    112.700
       5     58.350    112.700
       6     58.350    112.700
       7     58.350    112.700
       8     58.350    112.700
       9     58.350    112.700
      10     58.350    112.700
      11     58.350    112.700
      12     58.350    112.700
      13     58.350    112.700
      14     58.350    112.700
      15     58.350    112.700
      16     58.350    112.700
      17     58.350    112.700
      18     58.350    112.700
      19     58.350    112.700
      20     58.350    112.700
      21     58.350    112.700
      22     58.350    112.700
      23     58.350    112.700
      24     58.350    112.700
      25     58.350    112.700
      26     58.350    112.700
      27     58.350    112.700
      28     63.000    111.100
      29     80.000    120.400
      30     70.000    108.000
      31     37.500    110.700
      32     37.500    110.700
      33     37.500    110.700
      34     37.500    110.700
      35     37.500    110.700
      36     37.500    110.700
      37     37.500    110.700
      38     37.500    110.700
      39     37.500    110.700
      40     37.500    110.700
      41     37.500    110.700
      42     37.500    110.700
      43     37.500    110.700
      44     37.500    110.700
      45     37.500    110.700
      46     37.500    110.700
      47     37.500    110.700
      48     37.500    110.700
      49     37.500    110.700
      50     37.500    110.700
      51     37.500    110.700
      52     37.500    110.700
      53     37.500    110.700
      54     37.500    110.700
      55     37.500    110.700
      56     37.500    110.700
      57     37.500    110.700
      58     37.500    110.700
      59     37.500    110.700
      60     37.500    110.700
      61     37.500    110.700
      62     37.500    110.700
      63     37.500    110.700
      64     37.500    110.700
      65     37.500    110.700
      66     37.500    110.700
      67     37.500    110.700
      68     37.500    110.700
      69     37.500    110.700
      70     37.500    110.700
      71     37.500    110.700
      72     37.500    110.700
      73     37.500    110.700
      74     37.500    110.700
      75     37.500    110.700
      76     37.500    110.700
      77     37.500    110.700
      78     37.500    110.700
      79     37.500    110.700
      80     37.500    110.700
      81     37.500    110.700
      82     37.500    110.700
      83     37.500    110.700
      84     37.500    110.700
      85     37.500    110.700
      86     37.500    110.700
      87     37.500    110.700
      88     37.500    110.700
      89     37.500    110.700
      90     35.000    113.000
      91     33.000    107.800
      92     37.500    110.700
      93     37.500    110.700
      94     37.500    110.700
      95     33.000    107.800
      96     37.500    110.700
      97     37.500    110.700
      98     37.500    110.700
      99     33.000    107.800
     100     37.500    110.700
     101     37.500    110.700
     102     37.500    110.700
     103     37.500    110.700
     104     37.500    110.700
     105     37.500    110.700
     106     37.500    110.700
     107     37.500    110.700
     108     33.000    107.800
     109     37.500    110.700
     110     33.000    107.800
     111     37.500    110.700
     112     33.000    107.800
     113     33.000    107.800
     114     37.500    110.700
     115     37.500    110.700
     116     37.500    110.700
     117     37.500    110.700
     118     37.500    110.700
     119     37.500    110.700
     120     33.000    107.800
     121     33.000    107.800
     122     37.500    110.700
     123     33.000    107.800
     124     37.500    110.700
     125     37.500    110.700
     126     37.500    110.700
     127     33.000    107.800
     128     35.000    109.500
     129     33.000    107.800
     130     37.500    110.700
     131     33.000    107.800
     132     37.500    110.700
     133     37.500    110.700
     134     37.500    110.700
     135     33.000    107.800
     136     33.000    107.800
     137     37.500    110.700
     138     33.000    107.800
     139     37.500    110.700
     140     33.000    107.800
     141     33.000    107.800
     142     80.000    121.000
     143     37.500    110.700
     144     37.500    110.700
     145     37.500    110.700
     146     37.500    110.700
     147     37.500    110.700
     148     37.500    110.700
     149     33.000    107.800
     150     33.000    107.800
     151     37.500    110.700
     152     33.000    107.800
     153     33.000    107.800
     154     35.000    109.500
     155     33.000    107.800
     156     37.500    110.700
     157     37.500    110.700
     158     37.500    110.700
     159     37.500    110.700
     160     37.500    110.700
     161     33.000    107.800
     162     33.000    107.800
     163     33.000    107.800
     164     33.000    107.800
     165     37.500    110.700
     166     37.500    110.700
     167     37.500    110.700
     168     37.500    110.700
     169     33.000    107.800
     170     37.500    110.700
     171     37.500    110.700
     172     33.000    107.800
     173     33.000    107.800
     174     37.500    110.700
     175     37.500    110.700
     176     37.500    110.700
     177     37.500    110.700
     178     33.000    107.800

Dihedral Coeffs  

       1      1.300     -0.200      0.200      0.000 
       2      1.300     -0.200      0.200      0.000 
       3      1.300     -0.200      0.200      0.000 
       4      1.300     -0.200      0.200      0.000 
       5      1.300     -0.200      0.200      0.000 
       6      1.300     -0.200      0.200      0.000 
       7      1.300     -0.200      0.200      0.000 
       8      1.300     -0.200      0.200      0.000 
       9      1.300     -0.200      0.200      0.000 
      10      1.300     -0.200      0.200      0.000 
      11      1.300     -0.200      0.200      0.000 
      12      1.300     -0.200      0.200      0.000 
      13      1.300     -0.200      0.200      0.000 
      14      1.300     -0.200      0.200      0.000 
      15      1.300     -0.200      0.200      0.000 
      16      1.300     -0.200      0.200      0.000 
      17      1.300     -0.200      0.200      0.000 
      18      1.300     -0.200      0.200      0.000 
      19      1.300     -0.200      0.200      0.000 
      20      1.300     -0.200      0.200      0.000 
      21      1.300     -0.200      0.200      0.000 
      22      1.300     -0.200      0.200      0.000 
      23      1.300     -0.200      0.200      0.000 
      24      1.300     -0.200      0.200      0.000 
      25      1.300     -0.200      0.200      0.000 
      26      1.300     -0.200      0.200      0.000 
      27     -2.060     -0.313      0.315      0.000 
      28      0.000      0.000      0.000      0.000 
      29      0.000      0.000      0.300      0.000 
      30      1.500      5.500      0.000      0.000 
      31      0.000      0.000      0.300      0.000 
      32      0.000      0.000      0.300      0.000 
      33      0.000      0.000      0.300      0.000 
      34      0.000      0.000      0.300      0.000 
      35      0.000      0.000      0.300      0.000 
      36      0.000      0.000      0.300      0.000 
      37      0.000      0.000      0.300      0.000 
      38      0.000      0.000      0.300      0.000 
      39      0.000      0.000      0.300      0.000 
      40      0.000      0.000      0.300      0.000 
      41      0.000      0.000      0.000      0.000 
      42      0.000      0.000      0.300      0.000 
      43      0.000      0.000      0.300      0.000 
      44      0.000      0.000      0.300      0.000 
      45      0.000      0.000      0.300      0.000 
      46      0.000      0.000      0.300      0.000 
      47      0.000      0.000      0.300      0.000 
      48      0.000      0.000      0.300      0.000 
      49      0.000      0.000      0.300      0.000 
      50      0.000      0.000      0.300      0.000 
      51      0.000      0.000      0.300      0.000 
      52      0.000      0.000      0.300      0.000 
      53      0.000      0.000      0.300      0.000 
      54      0.000      0.000      0.300      0.000 
      55      0.000      0.000      0.300      0.000 
      56      0.000      0.000     -0.100      0.000 
      57      0.000      0.000      0.300      0.000 
      58      0.000      0.000      0.300      0.000 
      59      0.000      0.000      0.300      0.000 
      60      0.000      0.000      0.300      0.000 
      61      0.000      0.000      0.300      0.000 
      62      0.000      0.000      0.300      0.000 
      63      0.000      0.000      0.300      0.000 
      64      0.000      0.000      0.300      0.000 
      65      0.000      0.000      0.300      0.000 
      66      0.000      0.000      0.300      0.000 
      67      0.000      0.000      0.300      0.000 
      68      0.000      0.000      0.300      0.000 
      69      0.000      0.000      0.300      0.000 
      70      0.000      0.000      0.300      0.000 
      71      0.000      0.000      0.300      0.000 
      72      0.000      0.000      0.300      0.000 
      73      0.000      0.000      0.300      0.000 
      74      0.000      0.000      0.300      0.000 
      75      0.000      0.000      0.300      0.000 
      76      0.000      0.000      0.300      0.000 
      77      0.000      0.000      0.300      0.000 
      78      0.000      0.000      0.300      0.000 
      79      0.000      0.000      0.300      0.000 
      80      0.000      0.000      0.300      0.000 
      81      0.000      0.000      0.300      0.000 
      82      0.000      0.000      0.300      0.000 
      83      0.000      0.000      0.300      0.000 
      84      0.000      0.000      0.300      0.000 
      85      0.000      0.000      0.300      0.000 
      86      0.000      0.000      0.300      0.000 
      87      0.000      0.000      0.300      0.000 
      88      0.000      0.000      0.300      0.000 
      89      0.000      0.000      0.300      0.000 
      90      0.000      0.000      0.300      0.000 
      91      0.000      0.000      0.300      0.000 
      92      0.000      0.000      0.300      0.000 
      93      0.000      0.000      0.300      0.000 
      94      0.000      0.000      0.300      0.000 
      95      0.000      0.000      0.300      0.000 
      96      0.000      0.000      0.300      0.000 
      97      0.000      0.000      0.300      0.000 
      98      0.000      0.000      0.300      0.000 
      99      0.000      0.000      0.300      0.000 
     100      0.000      0.000      0.300      0.000 
     101      0.000      0.000      0.300      0.000 
     102      0.000      0.000      0.300      0.000 
     103      0.000      0.000      0.300      0.000 
     104      0.000      0.000      0.300      0.000 
     105      0.000      0.000      0.300      0.000 
     106      0.000      0.000      0.300      0.000 
     107      0.000      0.000      0.300      0.000 
     108      0.000      0.000      0.300      0.000 
     109      0.000      0.000      0.300      0.000 
     110      0.000      0.000      0.300      0.000 
     111      0.000      0.000      0.300      0.000 
     112      0.000      0.000      0.300      0.000 
     113      0.000      0.000      0.300      0.000 
     114      0.000      0.000      0.300      0.000 
     115      0.000      0.000      0.300      0.000 
     116      0.000      0.000      0.300      0.000 
     117      0.000      0.000      0.300      0.000 
     118      0.000      0.000      0.300      0.000 
     119      0.000      0.000      0.000      0.000 
     120      0.000      0.000      0.300      0.000 
     121      0.000      0.000      0.300      0.000 
     122      0.000      0.000      0.300      0.000 
     123      0.000      0.000      0.300      0.000 
     124      0.000      0.000      0.300      0.000 
     125      0.000      0.000      0.300      0.000 
     126      0.000      0.000      0.300      0.000 
     127      0.000      0.000      0.300      0.000 
     128      0.000      0.000      0.300      0.000 
     129      0.000      0.000      0.300      0.000 
     130      0.000      0.000      0.300      0.000 
     131      0.000      0.000      0.300      0.000 
     132      0.000      0.000      0.300      0.000 
     133      0.000      0.000      0.300      0.000 
     134      0.000      0.000     -0.100      0.000 
     135      0.000      0.000      0.300      0.000 
     136      0.000      0.000      0.300      0.000 
     137      0.000      0.000      0.300      0.000 
     138      0.000      0.000      0.300      0.000 
     139      0.000      0.000      0.300      0.000 
     140      0.000      0.000      0.300      0.000 
     141      0.000      0.000      0.300      0.000 
     142      0.000      0.000      0.300      0.000 
     143      0.000      0.000      0.300      0.000 
     144      0.000      0.000      0.300      0.000 
     145      0.000      0.000      0.300      0.000 
     146      0.000      0.000      0.300      0.000 
     147      0.000      0.000      0.300      0.000 
     148      0.000      0.000      0.300      0.000 
     149      0.000      0.000      0.300      0.000 
     150      0.000      0.000      0.300      0.000 
     151      0.000      0.000      0.300      0.000 
     152      0.000      0.000      0.300      0.000 
     153      0.000      0.000      0.300      0.000 
     154      0.000      0.000      0.300      0.000 
     155      0.000      0.000      0.300      0.000 
     156      0.000      0.000      0.300      0.000 
     157      0.000      0.000      0.300      0.000 
     158      0.000      0.000      0.300      0.000 
     159      0.000      0.000      0.300      0.000 
     160      0.000      0.000      0.300      0.000 
     161      0.000      0.000      0.300      0.000 
     162      0.000      0.000      0.300      0.000 
     163      0.000      0.000      0.300      0.000 
     164      0.000      0.000      0.300      0.000 
     165      0.000      0.000      0.300      0.000 
     166      0.000      0.000      0.300      0.000 
     167      0.000      0.000      0.300      0.000 
     168      0.000      0.000      0.300      0.000 
     169      0.000      0.000      0.300      0.000 
     170      0.000      0.000      0.300      0.000 
     171      0.000      0.000      0.300      0.000 
     172      0.000      0.000      0.300      0.000 
     173      0.000      0.000      0.300      0.000 
     174      0.000      0.000      0.300      0.000 
     175      0.000      0.000      0.300      0.000 
     176      0.000      0.000      0.300      0.000 
     177      0.000      0.000      0.300      0.000 
     178      0.000      0.000      0.300      0.000 
     179      0.000      0.000      0.300      0.000 
     180      0.000      0.000      0.300      0.000 
     181      0.000      0.000      0.300      0.000 
     182      0.000      0.000      0.300      0.000 
     183      0.000      0.000      0.300      0.000 
     184      0.000      0.000      0.300      0.000 
     185      0.000      0.000      0.300      0.000 
     186      0.000      0.000      0.300      0.000 
     187      0.000      0.000      0.300      0.000 
     188      0.000      0.000      0.300      0.000 
     189      0.000      0.000      0.300      0.000 
     190      0.000      0.000      0.000      0.000 
     191      0.000      0.000      0.300      0.000 
     192      0.000      0.000      0.000      0.000 
     193      0.000      0.000      0.300      0.000 
     194      0.000      0.000      0.300      0.000 
     195      0.000      0.000      0.300      0.000 
     196      1.000      0.546      0.450      0.000 
     197      0.000      0.000      0.300      0.000 
     198      0.000      0.000      0.300      0.000 
     199      0.000      0.000      0.300      0.000 
     200      0.000      0.000      0.300      0.000 
     201      0.000      0.000      0.300      0.000 
     202      0.000      0.000      0.300      0.000 
     203      0.000      0.000      0.300      0.000 
     204      0.000      0.000      0.300      0.000 
     205      0.000      0.000      0.300      0.000 
     206      0.000      0.000      0.300      0.000 
     207      0.000      0.000      0.300      0.000 
     208      0.000      0.000      0.300      0.000 
     209      0.000      0.000      0.300      0.000 
     210      0.000      0.000      0.300      0.000 
     211      0.000      0.000      0.300      0.000 
     212      0.000      0.000      0.300      0.000 
     213      0.000      0.000      0.300      0.000 
     214      0.000      0.000      0.300      0.000 
     215      0.000      0.000      0.300      0.000 
     216      0.000      0.000      0.300      0.000 
     217      0.000      0.000      0.300      0.000 
     218      0.000      0.000      0.300      0.000 
     219      0.000      0.000      0.300      0.000 
     220      0.000      0.000      0.300      0.000 
     221      0.000      0.000      0.300      0.000 
     222      0.000      0.000      0.300      0.000 
     223      0.000      0.000      0.300      0.000 
     224      0.000      0.000      0.300      0.000 
     225      0.000      0.000      0.300      0.000 
     226      0.000      0.000      0.300      0.000 
     227      0.000      0.000      0.300      0.000 
     228      0.000      0.000      0.300      0.000 
     229      0.000      0.000      0.300      0.000 
     230      0.000      0.000      0.300      0.000 
     231      0.000      0.000      0.300      0.000 
     232      0.000      0.000      0.300      0.000 
     233      0.000      0.000      0.300      0.000 
     234      0.000      0.000      0.300      0.000 
     235      0.000      0.000      0.300      0.000 
     236      0.000      0.000      0.300      0.000 
     237      0.000      0.000      0.300      0.000 
     238      0.000      0.000      0.300      0.000 
     239      0.000      0.000      0.300      0.000 
     240      0.000      0.000      0.300      0.000 
     241      0.000      0.000      0.300      0.000 
     242      0.000      0.000      0.300      0.000 
     243      0.000      0.000      0.300      0.000 
     244      0.000      0.000      0.300      0.000 
     245      0.000      0.000      0.300      0.000 
     246      0.000      0.000      0.300      0.000 
     247      0.000      0.000      0.300      0.000 
     248      0.000      0.000      0.300      0.000 
     249      0.000      0.000      0.300      0.000 
     250      0.000      0.000      0.300      0.000 
     251      0.000      0.000      0.300      0.000 
     252      0.000      0.000      0.300      0.000 
     253      0.000      0.000      0.300      0.000 
     254      0.000      0.000      0.300      0.000 
     255      0.000      0.000      0.300      0.000 
     256      0.000      0.000      0.300      0.000 
     257      0.000      0.000      0.300      0.000 
     258      0.000      5.500      0.000      0.000 
     259      0.000      0.000      0.300      0.000 
     260      0.000      0.000      0.300      0.000 

Improper Coeffs 

       1     10.500      -1       2 
       2      0.000      -1       2 
       3      0.000      -1       2 
       4      0.000      -1       2 
       5      0.000      -1       2 
       6      0.000      -1       2 
       7      0.000      -1       2 
       8      0.000      -1       2 
       9      0.000      -1       2 
      10      0.000      -1       2 
      11      0.000      -1       2 
      12      0.000      -1       2 
      13      0.000      -1       2 
      14      0.000      -1       2 
      15      0.000      -1       2 
      16      0.000      -1       2 
      17      0.000      -1       2 
      18      0.000      -1       2 
      19      0.000      -1       2 
      20      0.000      -1       2 
      21      0.000      -1       2 
      22      0.000      -1       2 
      23      0.000      -1       2 
      24      0.000      -1       2 
      25      0.000      -1       2 
      26      0.000      -1       2 
      27      0.000      -1       2 
      28      0.000      -1       2 
      29      0.000      -1       2 
      30      0.000      -1       2 
      31      0.000      -1       2 
      32      0.000      -1       2 
      33      0.000      -1       2 
      34      0.000      -1       2 
      35      0.000      -1       2 
      36      0.000      -1       2 
      37      0.000      -1       2 
      38      0.000      -1       2 
      39      0.000      -1       2 
      40      0.000      -1       2 
      41      0.000      -1       2 
      42      0.000      -1       2 
      43      0.000      -1       2 
      44      0.000      -1       2 
      45      0.000      -1       2 
      46      0.000      -1       2 
      47      0.000      -1       2 
      48      0.000      -1       2 
      49      0.000      -1       2 
      50      0.000      -1       2 
      51      0.000      -1       2 
      52      0.000      -1       2 
      53      0.000      -1       2 
      54      0.000      -1       2 
      55      0.000      -1       2 
      56      0.000      -1       2 
      57      0.000      -1       2 
      58      0.000      -1       2 
      59      0.000      -1       2 

Atoms 

     1      1      1 -0.23900000    1.000  1.00000  0.00000
     2      1      2 -0.17960000   -0.519  1.00000  0.00000
     3      1      3 -0.17900000   -1.065  1.00000  1.42422
     4      1      4 -0.17980000   -2.591  1.00180  1.42422
     5      1      5 -0.18000000   -3.128  1.00359  2.85096
     6      1      6 -0.18000000   -4.651  1.00719  2.85259
     7      1      7 -0.18010000   -5.181  1.00716  4.27975
     8      1      8 -0.18030000   -6.703  1.00896  4.27975
     9      1      9 -0.18040000   -7.231  1.01073  5.70609
    10      1     10 -0.18060000   -8.751  1.01072  5.70285
    11      1     11 -0.18060000   -9.279  1.01069  7.12793
    12      1     12 -0.18070000  -10.798  1.01248  7.12308
    13      1     13 -0.18070000  -11.324  1.01425  8.54810
    14      1     14 -0.18070000  -12.843  1.01423  8.54325
    15      1     15 -0.18060000  -13.367  1.01781  9.96854
    16      1     16 -0.18080000  -14.886  1.01599  9.96369
    17      1     17 -0.18070000  -15.412  1.02136 11.38842
    18      1     18 -0.18070000  -16.931  1.02134 11.38195
    19      1     19 -0.18050000  -17.458  1.02852 12.80671
    20      1     20 -0.18050000  -18.978  1.03031 12.80184
    21      1     21 -0.18040000  -19.506  1.03930 14.22740
    22      1     22 -0.18020000  -21.027  1.04292 14.22739
    23      1     23 -0.17990000  -21.554  1.05011 15.65514
    24      1     24 -0.18020000  -23.076  1.05555 15.65836
    25      1     25 -0.17930000  -23.609  1.06096 17.08565
    26      1     26 -0.17920000  -25.133  1.06820 17.08074
    27      1     27 -0.18020000  -25.689  1.07190 18.50129
    28      1     28 -0.17100000  -27.214  1.07732 18.47354
    29      1     29 -0.26050000  -27.795  1.07930 19.88243
    30      1     30 0.45950000  -29.307  1.08289 19.85493
    31      1     31 -0.39440000  -29.998  1.08411 18.84979
    32      1     32 -0.56050000  -29.839  1.08311 21.09920
    33      1     33 0.08070000    1.378  1.00130 -1.02661
    34      1     34 0.08070000    1.390  0.11133  0.50650
    35      1     35 0.08070000    1.390  1.88734  0.50872
    36      1     36 0.08860000   -0.881  0.11645 -0.53827
    37      1     37 0.08860000   -0.881  1.88361 -0.53831
    38      1     38 0.08960000   -0.697  1.88244  1.96175
    39      1     39 0.08960000   -0.699  0.11628  1.96091
    40      1     40 0.08960000   -2.963  0.11855  0.89108
    41      1     41 0.08960000   -2.961  1.88518  0.88957
    42      1     42 0.08970000   -2.757  1.88621  3.38594
    43      1     43 0.08970000   -2.761  0.11952  3.38664
    44      1     44 0.09000000   -5.025  0.12457  2.31931
    45      1     45 0.09000000   -5.020  1.89174  2.31996
    46      1     46 0.09010000   -4.809  1.88950  4.81486
    47      1     47 0.09010000   -4.812  0.12243  4.81279
    48      1     48 0.09020000   -7.076  0.12559  3.74795
    49      1     49 0.09020000   -7.074  1.89256  3.74639
    50      1     50 0.09020000   -6.860  1.89510  6.23898
    51      1     51 0.09020000   -6.860  0.12771  6.24117
    52      1     52 0.09030000   -9.122  0.12690  5.16926
    53      1     53 0.09030000   -9.122  1.89443  5.16936
    54      1     54 0.09030000   -8.907  1.89385  7.66241
    55      1     55 0.09030000   -8.909  0.12633  7.66150
    56      1     56 0.09040000  -11.169  0.12874  6.58986
    57      1     57 0.09040000  -11.167  1.89627  6.58841
    58      1     58 0.09030000  -10.953  1.89861  9.08059
    59      1     59 0.09030000  -10.953  0.13111  9.08285
    60      1     60 0.09050000  -13.213  0.12909  8.01150
    61      1     61 0.09050000  -13.213  1.89660  8.00713
    62      1     62 0.09030000  -12.997  1.90340 10.49907
    63      1     63 0.09030000  -12.994  0.13613 10.50433
    64      1     64 0.09050000  -15.255  0.12957  9.43349
    65      1     65 0.09050000  -15.257  1.89703  9.42606
    66      1     66 0.09030000  -15.041  1.90710 11.91870
    67      1     67 0.09030000  -15.041  0.13960 11.92539
    68      1     68 0.09050000  -17.301  0.13551 10.85103
    69      1     69 0.09050000  -17.299  1.90273 10.84298
    70      1     70 0.09020000  -17.085  1.91399 13.33607
    71      1     71 0.09020000  -17.087  0.14704 13.34420
    72      1     72 0.09060000  -19.349  0.14419 12.27188
    73      1     73 0.09060000  -19.346  1.91111 12.26148
    74      1     74 0.09000000  -19.131  1.92426 14.75531
    75      1     75 0.09000000  -19.136  0.15738 14.76473
    76      1     76 0.09080000  -21.399  0.15786 13.69692
    77      1     77 0.09080000  -21.395  1.92532 13.68956
    78      1     78 0.08990000  -21.178  1.93438 16.18382
    79      1     79 0.08990000  -21.183  0.16676 16.18945
    80      1     80 0.09140000  -23.449  0.17202 15.12587
    81      1     81 0.09140000  -23.443  1.93835 15.12058
    82      1     82 0.08970000  -23.234  1.94432 17.61652
    83      1     83 0.08970000  -23.242  0.17733 17.62131
    84      1     84 0.09400000  -25.501  0.18613 16.54204
    85      1     85 0.09400000  -25.494  1.95223 16.54113
    86      1     86 0.08850000  -25.322  1.95540 19.03843
    87      1     87 0.08850000  -25.328  0.18848 19.04164
    88      1     88 0.11130000  -27.574  0.19741 17.92581
    89      1     89 0.11130000  -27.569  1.95880 17.92509
    90      1     90 0.12120000  -27.461  1.97254 20.42082
    91      1     91 0.12120000  -27.464  0.18543 20.42204
    92      1     92 0.45150000  -29.170  1.08093 21.81126

Bonds 

     1      1      2      1
     2      2      3      2
     3      3      4      3
     4      4      5      4
     5      5      6      5
     6      6      7      6
     7      7      8      7
     8      8      9      8
     9      9     10      9
    10     10     11     10
    11     11     12     11
    12     12     13     12
    13     13     14     13
    14     14     15     14
    15     15     16     15
    16     16     17     16
    17     17     18     17
    18     18     19     18
    19     19     20     19
    20     20     21     20
    21     21     22     21
    22     22     23     22
    23     23     24     23
    24     24     25     24
    25     25     26     25
    26     26     27     26
    27     27     28     27
    28     28     29     28
    29     29     30     29
    30     30     31     30
    31     31     32     30
    32     32     33      1
    33     33     34      1
    34     34     35      1
    35     35     36      2
    36     36     37      2
    37     37     38      3
    38     38     39      3
    39     39     40      4
    40     40     41      4
    41     41     42      5
    42     42     43      5
    43     43     44      6
    44     44     45      6
    45     45     46      7
    46     46     47      7
    47     47     48      8
    48     48     49      8
    49     49     50      9
    50     50     51      9
    51     51     52     10
    52     52     53     10
    53     53     54     11
    54     54     55     11
    55     55     56     12
    56     56     57     12
    57     57     58     13
    58     58     59     13
    59     59     60     14
    60     60     61     14
    61     61     62     15
    62     62     63     15
    63     63     64     16
    64     64     65     16
    65     65     66     17
    66     66     67     17
    67     67     68     18
    68     68     69     18
    69     69     70     19
    70     70     71     19
    71     71     72     20
    72     72     73     20
    73     73     74     21
    74     74     75     21
    75     75     76     22
    76     76     77     22
    77     77     78     23
    78     78     79     23
    79     79     80     24
    80     80     81     24
    81     81     82     25
    82     82     83     25
    83     83     84     26
    84     84     85     26
    85     85     86     27
    86     86     87     27
    87     87     88     28
    88     88     89     28
    89     89     90     29
    90     90     91     29
    91     91     92     32

Angles 

     1      1      1      2      3
     2      2      2      3      4
     3      3      3      4      5
     4      4      4      5      6
     5      5      5      6      7
     6      6      6      7      8
     7      7      7      8      9
     8      8      8      9     10
     9      9      9     10     11
    10     10     10     11     12
    11     11     11     12     13
    12     12     12     13     14
    13     13     13     14     15
    14     14     14     15     16
    15     15     15     16     17
    16     16     16     17     18
    17     17     17     18     19
    18     18     18     19     20
    19     19     19     20     21
    20     20     20     21     22
    21     21     21     22     23
    22     22     22     23     24
    23     23     23     24     25
    24     24     24     25     26
    25     25     25     26     27
    26     26     26     27     28
    27     27     27     28     29
    28     28     28     29     30
    29     29     29     30     31
    30     30     29     30     32
    31     31      2      1     33
    32     32      2      1     34
    33     33      2      1     35
    34     34      1      2     36
    35     35      1      2     37
    36     36      2      3     38
    37     37      2      3     39
    38     38      3      4     40
    39     39      3      4     41
    40     40      4      5     42
    41     41      4      5     43
    42     42      5      6     44
    43     43      5      6     45
    44     44      6      7     46
    45     45      6      7     47
    46     46      7      8     48
    47     47      7      8     49
    48     48      8      9     50
    49     49      8      9     51
    50     50      9     10     52
    51     51      9     10     53
    52     52     10     11     54
    53     53     10     11     55
    54     54     11     12     56
    55     55     11     12     57
    56     56     12     13     58
    57     57     12     13     59
    58     58     13     14     60
    59     59     13     14     61
    60     60     14     15     62
    61     61     14     15     63
    62     62     15     16     64
    63     63     15     16     65
    64     64     16     17     66
    65     65     16     17     67
    66     66     17     18     68
    67     67     17     18     69
    68     68     18     19     70
    69     69     18     19     71
    70     70     19     20     72
    71     71     19     20     73
    72     72     20     21     74
    73     73     20     21     75
    74     74     21     22     76
    75     75     21     22     77
    76     76     22     23     78
    77     77     22     23     79
    78     78     23     24     80
    79     79     23     24     81
    80     80     24     25     82
    81     81     24     25     83
    82     82     25     26     84
    83     83     25     26     85
    84     84     26     27     86
    85     85     26     27     87
    86     86     27     28     88
    87     87     27     28     89
    88     88     28     29     90
    89     89     28     29     91
    90     90     30     32     92
    91     91     74     21     75
    92     92     29     28     89
    93     93     13     12     56
    94     94     25     24     81
    95     95     82     25     83
    96     96     29     28     88
    97     97      8      7     46
    98     98      4      3     38
    99     99     78     23     79
   100    100      5      4     40
   101    101     20     19     71
   102    102     23     22     76
   103    103     23     22     77
   104    104      9      8     48
   105    105     18     17     67
   106    106     22     21     75
   107    107      9      8     49
   108    108     90     29     91
   109    109      4      3     39
   110    110     34      1     35
   111    111      6      5     43
   112    112     42      5     43
   113    113     64     16     65
   114    114     10      9     50
   115    115      3      2     37
   116    116     24     23     78
   117    117     14     13     59
   118    118     15     14     60
   119    119     21     20     73
   120    120     48      8     49
   121    121     62     15     63
   122    122     20     19     70
   123    123     84     26     85
   124    124      5      4     41
   125    125     26     25     82
   126    126     22     21     74
   127    127     58     13     59
   128    128     30     29     91
   129    129     36      2     37
   130    130     19     18     69
   131    131     38      3     39
   132    132      7      6     45
   133    133     17     16     65
   134    134      3      2     36
   135    135     76     22     77
   136    136     33      1     35
   137    137     16     15     62
   138    138     70     19     71
   139    139     15     14     61
   140    140     52     10     53
   141    141     66     17     67
   142    142     31     30     32
   143    143     18     17     66
   144    144     13     12     57
   145    145     27     26     84
   146    146      8      7     47
   147    147     24     23     79
   148    148     19     18     68
   149    149     50      9     51
   150    150     40      4     41
   151    151     26     25     83
   152    152     56     12     57
   153    153     33      1     34
   154    154     30     29     90
   155    155     54     11     55
   156    156     10      9     51
   157    157     14     13     58
   158    158     16     15     63
   159    159     11     10     52
   160    160      7      6     44
   161    161     68     18     69
   162    162     86     27     87
   163    163     46      7     47
   164    164     44      6     45
   165    165     28     27     86
   166    166     11     10     53
   167    167     21     20     72
   168    168     28     27     87
   169    169     80     24     81
   170    170      6      5     42
   171    171     12     11     54
   172    172     72     20     73
   173    173     88     28     89
   174    174     12     11     55
   175    175     17     16     64
   176    176     27     26     85
   177    177     25     24     80
   178    178     60     14     61

Dihedrals

     1      1      4      3      2      1 
     2      2      5      4      3      2 
     3      3      6      5      4      3 
     4      4      7      6      5      4 
     5      5      8      7      6      5 
     6      6      9      8      7      6 
     7      7     10      9      8      7 
     8      8     11     10      9      8 
     9      9     12     11     10      9 
    10     10     13     12     11     10 
    11     11     14     13     12     11 
    12     12     15     14     13     12 
    13     13     16     15     14     13 
    14     14     17     16     15     14 
    15     15     18     17     16     15 
    16     16     19     18     17     16 
    17     17     20     19     18     17 
    18     18     21     20     19     18 
    19     19     22     21     20     19 
    20     20     23     22     21     20 
    21     21     24     23     22     21 
    22     22     25     24     23     22 
    23     23     26     25     24     23 
    24     24     27     26     25     24 
    25     25     28     27     26     25 
    26     26     29     28     27     26 
    27     27     30     29     28     27 
    28     28     31     30     29     28 
    29     29     33      1      2      3 
    30     30     92     32     30     29 
    31     31     41      4      3     39 
    32     32     47      7      6     45 
    33     33     70     19     18     17 
    34     34     37      2      1     35 
    35     35     68     18     17     66 
    36     36     63     15     14     60 
    37     37     58     13     12     11 
    38     38     50      9      8      7 
    39     39     86     27     26     25 
    40     40     64     16     17     18 
    41     41     91     29     30     32 
    42     42     72     20     21     22 
    43     43     71     19     18     68 
    44     44     70     19     18     69 
    45     45     86     27     26     84 
    46     46     83     25     24     81 
    47     47     85     26     25     83 
    48     48     74     21     20     19 
    49     49     73     20     21     22 
    50     50     40      4      3     39 
    51     51     41      4      3     38 
    52     52     57     12     11     10 
    53     53     48      8      7      6 
    54     54     54     11     12     13 
    55     55     41      4      5      6 
    56     56     89     28     29     30 
    57     57     83     25     24     23 
    58     58     54     11     10      9 
    59     59     87     27     26     84 
    60     60     80     24     25     26 
    61     61     88     28     27     86 
    62     62     40      4      3      2 
    63     63     49      8      7     47 
    64     64     42      5      4     40 
    65     65     89     28     27     26 
    66     66     86     27     28     29 
    67     67     42      5      4      3 
    68     68     81     24     25     26 
    69     69     81     24     23     78 
    70     70     76     22     21     74 
    71     71     67     17     16     15 
    72     72     84     26     25     82 
    73     73     37      2      3      4 
    74     74     57     12     13     14 
    75     75     66     17     16     15 
    76     76     57     12     11     55 
    77     77     61     14     13     59 
    78     78     35      1      2      3 
    79     79     79     23     22     76 
    80     80     38      3      2      1 
    81     81     49      8      7      6 
    82     82     79     23     22     77 
    83     83     55     11     10     52 
    84     84     61     14     13     58 
    85     85     87     27     26     25 
    86     86     62     15     14     13 
    87     87     89     28     27     87 
    88     88     46      7      8      9 
    89     89     73     20     19     71 
    90     90     79     23     24     25 
    91     91     84     26     27     28 
    92     92     68     18     17     16 
    93     93     73     20     19     18 
    94     94     61     14     15     16 
    95     95     70     19     20     21 
    96     96     76     22     21     20 
    97     97     90     29     28     89 
    98     98     78     23     22     77 
    99     99     63     15     14     61 
   100    100     46      7      6      5 
   101    101     62     15     14     61 
   102    102     83     25     26     27 
   103    103     45      6      7      8 
   104    104     74     21     22     23 
   105    105     51      9      8      7 
   106    106     60     14     15     16 
   107    107     63     15     14     13 
   108    108     49      8      9     10 
   109    109     55     11     12     13 
   110    110     36      2      1     35 
   111    111     39      3      4      5 
   112    112     59     13     12     57 
   113    113     78     23     22     21 
   114    114     48      8      7     47 
   115    115     49      8      7     46 
   116    116     66     17     16     65 
   117    117     68     18     19     20 
   118    118     71     19     18     17 
   119    119     90     29     30     31 
   120    120     55     11     10      9 
   121    121     65     16     17     18 
   122    122     63     15     16     17 
   123    123     52     10     11     12 
   124    124     91     29     28     88 
   125    125     69     18     17     16 
   126    126     66     17     16     64 
   127    127     62     15     16     17 
   128    128     78     23     24     25 
   129    129     40      4      3     38 
   130    130     72     20     19     18 
   131    131     77     22     23     24 
   132    132     80     24     23     22 
   133    133     67     17     18     19 
   134    134     88     28     29     30 
   135    135     34      1      2      3 
   136    136     87     27     28     29 
   137    137     66     17     18     19 
   138    138     42      5      4     41 
   139    139     45      6      5      4 
   140    140     52     10      9      8 
   141    141     59     13     14     15 
   142    142     56     12     11     10 
   143    143     61     14     13     12 
   144    144     76     22     21     75 
   145    145     75     21     20     72 
   146    146     77     22     21     20 
   147    147     50      9      8     48 
   148    148     74     21     20     73 
   149    149     44      6      5      4 
   150    150     64     16     15     14 
   151    151     46      7      6     45 
   152    152     47      7      6     44 
   153    153     82     25     24     81 
   154    154     76     22     23     24 
   155    155     42      5      6      7 
   156    156     79     23     22     21 
   157    157     41      4      3      2 
   158    158     51      9     10     11 
   159    159     38      3      4      5 
   160    160     43      5      4     41 
   161    161     72     20     19     71 
   162    162     46      7      6     44 
   163    163     53     10      9     51 
   164    164     55     11     10     53 
   165    165     37      2      1     33 
   166    166     73     20     19     70 
   167    167     40      4      5      6 
   168    168     36      2      1     34 
   169    169     69     18     17     66 
   170    170     86     27     26     85 
   171    171     80     24     23     78 
   172    172     43      5      4      3 
   173    173     82     25     24     23 
   174    174     82     25     26     27 
   175    175     65     16     15     62 
   176    176     64     16     15     63 
   177    177     56     12     11     54 
   178    178     56     12     11     55 
   179    179     52     10      9     50 
   180    180     67     17     16     64 
   181    181     44      6      5     42 
   182    182     59     13     12     11 
   183    183     75     21     22     23 
   184    184     56     12     13     14 
   185    185     69     18     17     67 
   186    186     48      8      9     10 
   187    187     53     10      9      8 
   188    188     50      9     10     11 
   189    189     75     21     20     73 
   190    190     91     29     30     31 
   191    191     43      5      6      7 
   192    192     90     29     30     32 
   193    193     75     21     20     19 
   194    194     71     19     20     21 
   195    195     60     14     13     59 
   196    196     32     30     29     28 
   197    197     57     12     11     54 
   198    198     36      2      3      4 
   199    199     91     29     28     89 
   200    200     82     25     24     80 
   201    201     78     23     22     76 
   202    202     39      3      2      1 
   203    203     69     18     19     20 
   204    204     81     24     23     79 
   205    205     51      9      8     48 
   206    206     50      9      8     49 
   207    207     85     26     25     82 
   208    208     84     26     25     83 
   209    209     88     28     27     26 
   210    210     45      6      5     43 
   211    211     87     27     26     85 
   212    212     60     14     13     58 
   213    213     90     29     28     27 
   214    214     72     20     19     70 
   215    215     60     14     13     12 
   216    216     43      5      4     40 
   217    217     58     13     12     56 
   218    218     54     11     10     52 
   219    219     85     26     27     28 
   220    220     39      3      2     37 
   221    221     89     28     27     86 
   222    222     88     28     27     87 
   223    223     48      8      7     46 
   224    224     77     22     21     75 
   225    225     91     29     28     27 
   226    226     90     29     28     88 
   227    227     51      9      8     49 
   228    228     67     17     16     65 
   229    229     58     13     14     15 
   230    230     53     10     11     12 
   231    231     45      6      5     42 
   232    232     44      6      5     43 
   233    233     36      2      1     33 
   234    234     37      2      1     34 
   235    235     84     26     25     24 
   236    236     81     24     23     22 
   237    237     70     19     18     68 
   238    238     64     16     15     62 
   239    239     47      7      6      5 
   240    240     44      6      7      8 
   241    241     62     15     14     60 
   242    242     71     19     18     69 
   243    243     80     24     23     79 
   244    244     39      3      2     36 
   245    245     38      3      2     37 
   246    246     58     13     12     57 
   247    247     59     13     12     56 
   248    248     65     16     15     14 
   249    249     38      3      2     36 
   250    250     47      7      8      9 
   251    251     52     10      9     51 
   252    252     53     10      9     50 
   253    253     85     26     25     24 
   254    254     68     18     17     67 
   255    255     77     22     21     74 
   256    256     65     16     15     63 
   257    257     74     21     20     72 
   258    258     92     32     30     31 
   259    259     83     25     24     80 
   260    260     54     11     10     53 

Impropers

     1      1     30     29     31     32 
     2      2      1     34     33      2 
     3      3      1      2     35     33 
     4      4      2      1      3     36 
     5      5      2      1      3     37 
     6      6      3      2      4     38 
     7      7      3      2      4     39 
     8      8      4      3      5     40 
     9      9      4     41      3      5 
    10     10      5     42      4      6 
    11     11      5     43      4      6 
    12     12      6     44      5      7 
    13     13      6      5     45      7 
    14     14      7      8     46      6 
    15     15      7      8     47      6 
    16     16      8      9      7     48 
    17     17      8     49      9      7 
    18     18      9     50     10      8 
    19     19      9     10     51      8 
    20     20     10      9     11     52 
    21     21     10      9     11     53 
    22     22     11     10     12     54 
    23     23     11     10     12     55 
    24     24     12     11     13     56 
    25     25     12     57     11     13 
    26     26     13     58     12     14 
    27     27     13     59     12     14 
    28     28     14     60     13     15 
    29     29     14     13     61     15 
    30     30     15     16     62     14 
    31     31     15     16     63     14 
    32     32     16     17     15     64 
    33     33     16     65     17     15 
    34     34     17     66     18     16 
    35     35     17     18     67     16 
    36     36     18     17     19     68 
    37     37     18     17     19     69 
    38     38     19     18     20     70 
    39     39     19     18     20     71 
    40     40     20     19     21     72 
    41     41     20     73     19     21 
    42     42     21     74     20     22 
    43     43     21     75     20     22 
    44     44     22     76     21     23 
    45     45     22     21     77     23 
    46     46     23     24     78     22 
    47     47     23     24     79     22 
    48     48     24     25     23     80 
    49     49     24     81     25     23 
    50     50     25     82     26     24 
    51     51     25     26     83     24 
    52     52     26     25     27     84 
    53     53     26     25     27     85 
    54     54     27     26     28     86 
    55     55     27     26     28     87 
    56     56     28     27     29     88 
    57     57     28     89     27     29 
    58     58     29     90     28     30 
    59     59     29     91     28     30 

