#C30: Triacontanoate

91 atoms
4 atom types

90 bonds
4 bond types

177 angles
7 angle types

258 dihedrals
5 dihedral types

59 impropers
2 improper types

-0.916607619717201  0.921010538071533  xlo xhi
-1.45500469896879  1.50631175492819  ylo yhi
-1.03406363078007  37.1701305603194  zlo zhi

Masses

1  12.011
2  12.011
3  15.999
4  1.008

Pair Coeffs

1  0.066  3.5
2  0.07  3.55
3  0.21  2.96
4  0.03  2.5

Bond Coeffs

1  268.0  1.529
2  317.0  1.522
3  656.0  1.25
4  340.0  1.09

Angle Coeffs

1  58.35  112.7
2  63.0  111.1
3  70.0  117.0
4  37.5  110.7
5  33.0  107.8
6  35.0  109.5
7  80.0  126.0

Dihedral Coeffs

1  1.3  -0.2  0.2  0.0
2  -2.06  -0.313  0.315  0.0
3  0.0  0.0  0.0  0.0
4  0.0  0.0  0.3  0.0
5  0.0  0.0  -0.1  0.0

Improper Coeffs

1  10.5  -1.0  2.0
2  0.0  -1.0  2.0

Atoms # full

1  1  1  -0.2095  -7.88582243554947e-17    6.13451631858496e-15    36.2891149074568 
2  1  1  -0.1576  -0.0176713717366726    0.836684554533334    35.0214368415322 
3  1  1  -0.157   0.00589230715370638   -0.0505940934896753    33.7812459877521 
4  1  1  -0.1576  -0.0136138934709808    0.787984014553661    32.5076537474933 
5  1  1  -0.1577   0.00834365317235692   -0.107506986774284    31.2740475571367 
6  1  1  -0.1579  -0.012893304579715    0.728032388666304    30.0020686004657 
7  1  1  -0.158   0.0109427253138903   -0.170202474064432    28.7726165075178 
8  1  1  -0.1581  -0.0121161129907901    0.666094536088126    27.5023612506163 
9  1  1  -0.1583   0.0099641523626254   -0.233877518990181    26.2765800776657 
10  1  1  -0.1584  -0.0113416407527354    0.60461509741134    25.0089477667727 
11  1  1  -0.1585   0.00891935181976012   -0.29510013360909    23.7845597154794 
12  1  1  -0.1586  -0.0142083218482093    0.5441501175044    22.5186511043559 
13  1  1  -0.1585   0.00788272901691933   -0.356030638266606    21.2951285433007 
14  1  1  -0.1586  -0.0134676532992105    0.484055094483116    20.0309448396779 
15  1  1  -0.1586   0.0104153155446924   -0.41578222365595    18.8076239728227 
16  1  1  -0.1586  -0.0127347577643938    0.424268757058625    17.5434424199964 
17  1  1  -0.1586   0.0129487423983227   -0.475567180461162    16.3200973650478 
18  1  1  -0.1586  -0.0120120252154402    0.36497483239799    15.0550668872731 
19  1  1  -0.1585   0.0154551206733668   -0.534100340411706    13.8310008295646 
20  1  1  -0.1584  -0.0112710946546575    0.305047035215619    12.5650744827371 
21  1  1  -0.1584   0.0144056906197419   -0.594830671610273    11.3405036993376 
22  1  1  -0.1584  -0.0104664574798465    0.242766921974016    10.0711321224261 
23  1  1  -0.1582   0.0134692418116167   -0.659164452510856    8.84642841518943 
24  1  1  -0.1585  -0.00954699253813257    0.176323964018753    7.57444062798344 
25  1  1  -0.1585   0.0124726708512575   -0.721194609510288    6.34428836184131 
26  1  1  -0.1574  -0.00881214898146077    0.117039986593861    5.0740889542132 
27  1  1  -0.1615   0.0147250673629486   -0.76949620246232    3.83319024845979 
28  1  1  -0.136  -0.00512541257008945    0.0832401525594564    2.56774918690434 
29  1  1  -0.2321   0.019689809569434   -0.782267749568471    1.31554828888346 
30  1  2   0.4275   0    0    0 
31  1  3  -0.6315  -0.034178725489965    1.25984338589685    0.0890726834435889 
32  1  3  -0.6315   0.0223033456013343   -0.727499568984697   -1.03406363078007 
33  1  4   0.0704  -0.0158685933312801    0.648251238916463    37.1701305603194 
34  1  4   0.0704   0.902439890889472   -0.618045579994138    36.3359355159652 
35  1  4   0.0704  -0.873344717853378   -0.658711399554408    36.3338498814108 
36  1  4   0.0776   0.850114212639532    1.50631175492819    35.017535041922 
37  1  4   0.0776  -0.916607619717201    1.46405983218865    35.0142762232899 
38  1  4   0.0785  -0.860899930956671   -0.72255252483699    33.791983072685 
39  1  4   0.0785   0.904401225632101   -0.679716619807439    33.7932506241207 
40  1  4   0.0786   0.85385998335253    1.45904937438096    32.4915247063361 
41  1  4   0.0786  -0.912228177861793    1.41687914834083    32.4907074827836 
42  1  4   0.0787  -0.858503165165859   -0.779550596880874    31.2883239450486 
43  1  4   0.0787   0.907725500754628   -0.735632036113092    31.2878966268751 
44  1  4   0.0788   0.85350844216995    1.4018189195671    29.9841557529587 
45  1  4   0.0788  -0.912595832838037    1.35574123553412    29.9831562867664 
46  1  4   0.0788  -0.854621566854644   -0.844185863256388    28.789189498078 
47  1  4   0.0788   0.911307934652668   -0.796859789229722    28.7874205935135 
48  1  4   0.079   0.854361546153984    1.3384553966247    27.4835063833001 
49  1  4   0.079  -0.912376467363818    1.29273792846555    27.4851500062144 
50  1  4   0.079  -0.85730822477302   -0.905397186880718    26.2924064605016 
51  1  4   0.079   0.909740204673813   -0.861458993996783    26.2919806723241 
52  1  4   0.0791   0.856652093830416    1.27538416624021    24.9914176690307 
53  1  4   0.0791  -0.910329478250468    1.2326745826702    24.993851677626 
54  1  4   0.079  -0.858336943555786   -0.96655276421557    23.8016283733974 
55  1  4   0.079   0.908618079185013   -0.92270002527225    23.7987509790502 
56  1  4   0.0791   0.852415670723976    1.2164808291063    22.5021708059627 
57  1  4   0.0791  -0.914521234710004    1.1707168583563    22.5037865090861 
58  1  4   0.0791  -0.859376420705013   -1.02776716532403    21.3120098655363 
59  1  4   0.0791   0.907530578545121   -0.983773924287029    21.3116223814096 
60  1  4   0.0791   0.853095088368595    1.15674316734558    20.0158995121054 
61  1  4   0.0791  -0.913896495795505    1.11094475744297    20.0150967396384 
62  1  4   0.079  -0.855480648903446   -1.08930607433935    18.8245048884681 
63  1  4   0.079   0.911409828526905   -1.04169833286257    18.8241067459993 
64  1  4   0.0791   0.852494579896679    1.09875321464919    17.5284030643138 
65  1  4   0.0791  -0.914308010495093    1.04924426013205    17.5275451554924 
66  1  4   0.0788  -0.851574039659846   -1.1508781153545    16.3369778927614 
67  1  4   0.0788   0.915229726056033   -1.09964920649631    16.3365744706654 
68  1  4   0.0789   0.851737268787928    1.04063428848647    15.0408236781229 
69  1  4   0.0789  -0.915283609541542    0.987212903275694    15.0409813166632 
70  1  4   0.0784  -0.847328411374495   -1.21152363907563    13.8488594312542 
71  1  4   0.0784   0.918790286226666   -1.15674632777685    13.848411044752 
72  1  4   0.0786   0.852223693863896    0.981368358016061    12.5500734085503 
73  1  4   0.0786  -0.913860404404172    0.928395018502643    12.5517119583538 
74  1  4   0.0778  -0.850061528170672   -1.26965622944093    11.3589020616372 
75  1  4   0.0778   0.916361934686173   -1.2187284733178    11.3571069223409 
76  1  4   0.0781   0.854822739590926    0.916860462508366    10.0558339217972 
77  1  4   0.0781  -0.912158046883249    0.867497240530212    10.0574711899602 
78  1  4   0.0766  -0.85222944001503   -1.33235827291203    8.86592091265056 
79  1  4   0.0766   0.914128293329323   -1.28416211120445    8.8647203081136 
80  1  4   0.0771   0.856796232736753    0.848990084020165    7.55938387127572 
81  1  4   0.0771  -0.909621242819058    0.803255248612735    7.56101156328889 
82  1  4   0.0735  -0.853616941194991   -1.39466479350066    6.36240565141635 
83  1  4   0.0735   0.912690311789655   -1.34940855814176    6.36166186719155 
84  1  4   0.0757   0.856933739426328    0.790826589916866    5.06457307341036 
85  1  4   0.0757  -0.909307721566732    0.743752091225184    5.06411586227026 
86  1  4   0.0651  -0.852294373360416   -1.44156859748038    3.84385528303247 
87  1  4   0.0651   0.9141157825785   -1.39748734234182    3.84592932287312 
88  1  4   0.0796   0.859274207291506    0.758445868384206    2.5699729901138 
89  1  4   0.0796  -0.903460567472273    0.712607750545245    2.56668816264959 
90  1  4   0.0588  -0.846871579457114   -1.45500469896879    1.31977705465224 
91  1  4   0.0588   0.921010538071533   -1.40802460608806    1.32134733976791 

Bonds

1  1  2  1
2  1  3  2
3  1  4  3
4  1  5  4
5  1  6  5
6  1  7  6
7  1  8  7
8  1  9  8
9  1  10  9
10  1  11  10
11  1  12  11
12  1  13  12
13  1  14  13
14  1  15  14
15  1  16  15
16  1  17  16
17  1  18  17
18  1  19  18
19  1  20  19
20  1  21  20
21  1  22  21
22  1  23  22
23  1  24  23
24  1  25  24
25  1  26  25
26  1  27  26
27  1  28  27
28  1  29  28
29  2  30  29
30  3  31  30
31  3  32  30
32  4  33  1
33  4  34  1
34  4  35  1
35  4  36  2
36  4  37  2
37  4  38  3
38  4  39  3
39  4  40  4
40  4  41  4
41  4  42  5
42  4  43  5
43  4  44  6
44  4  45  6
45  4  46  7
46  4  47  7
47  4  48  8
48  4  49  8
49  4  50  9
50  4  51  9
51  4  52  10
52  4  53  10
53  4  54  11
54  4  55  11
55  4  56  12
56  4  57  12
57  4  58  13
58  4  59  13
59  4  60  14
60  4  61  14
61  4  62  15
62  4  63  15
63  4  64  16
64  4  65  16
65  4  66  17
66  4  67  17
67  4  68  18
68  4  69  18
69  4  70  19
70  4  71  19
71  4  72  20
72  4  73  20
73  4  74  21
74  4  75  21
75  4  76  22
76  4  77  22
77  4  78  23
78  4  79  23
79  4  80  24
80  4  81  24
81  4  82  25
82  4  83  25
83  4  84  26
84  4  85  26
85  4  86  27
86  4  87  27
87  4  88  28
88  4  89  28
89  4  90  29
90  4  91  29

Angles

1  1  1  2  3
2  1  2  3  4
3  1  3  4  5
4  1  4  5  6
5  1  5  6  7
6  1  6  7  8
7  1  7  8  9
8  1  8  9  10
9  1  9  10  11
10  1  10  11  12
11  1  11  12  13
12  1  12  13  14
13  1  13  14  15
14  1  14  15  16
15  1  15  16  17
16  1  16  17  18
17  1  17  18  19
18  1  18  19  20
19  1  19  20  21
20  1  20  21  22
21  1  21  22  23
22  1  22  23  24
23  1  23  24  25
24  1  24  25  26
25  1  25  26  27
26  1  26  27  28
27  1  27  28  29
28  2  28  29  30
29  3  29  30  31
30  3  29  30  32
31  4  2  1  33
32  4  2  1  34
33  4  2  1  35
34  4  1  2  36
35  4  1  2  37
36  4  2  3  38
37  4  2  3  39
38  4  3  4  40
39  4  3  4  41
40  4  4  5  42
41  4  4  5  43
42  4  5  6  44
43  4  5  6  45
44  4  6  7  46
45  4  6  7  47
46  4  7  8  48
47  4  7  8  49
48  4  8  9  50
49  4  8  9  51
50  4  9  10  52
51  4  9  10  53
52  4  10  11  54
53  4  10  11  55
54  4  11  12  56
55  4  11  12  57
56  4  12  13  58
57  4  12  13  59
58  4  13  14  60
59  4  13  14  61
60  4  14  15  62
61  4  14  15  63
62  4  15  16  64
63  4  15  16  65
64  4  16  17  66
65  4  16  17  67
66  4  17  18  68
67  4  17  18  69
68  4  18  19  70
69  4  18  19  71
70  4  19  20  72
71  4  19  20  73
72  4  20  21  74
73  4  20  21  75
74  4  21  22  76
75  4  21  22  77
76  4  22  23  78
77  4  22  23  79
78  4  23  24  80
79  4  23  24  81
80  4  24  25  82
81  4  24  25  83
82  4  25  26  84
83  4  25  26  85
84  4  26  27  86
85  4  26  27  87
86  4  27  28  88
87  4  27  28  89
88  4  28  29  90
89  4  28  29  91
90  5  74  21  75
91  4  29  28  89
92  4  13  12  56
93  4  25  24  81
94  5  82  25  83
95  4  29  28  88
96  4  8  7  46
97  4  4  3  38
98  5  78  23  79
99  4  5  4  40
100  4  20  19  71
101  4  23  22  76
102  4  23  22  77
103  4  9  8  48
104  4  18  17  67
105  4  22  21  75
106  4  9  8  49
107  5  90  29  91
108  4  4  3  39
109  5  34  1  35
110  4  6  5  43
111  5  42  5  43
112  5  64  16  65
113  4  10  9  50
114  4  3  2  37
115  4  24  23  78
116  4  14  13  59
117  4  15  14  60
118  4  21  20  73
119  5  48  8  49
120  5  62  15  63
121  4  20  19  70
122  5  84  26  85
123  4  5  4  41
124  4  26  25  82
125  4  22  21  74
126  5  58  13  59
127  6  30  29  91
128  5  36  2  37
129  4  19  18  69
130  5  38  3  39
131  4  7  6  45
132  4  17  16  65
133  4  3  2  36
134  5  76  22  77
135  5  33  1  35
136  4  16  15  62
137  5  70  19  71
138  4  15  14  61
139  5  52  10  53
140  5  66  17  67
141  7  31  30  32
142  4  18  17  66
143  4  13  12  57
144  4  27  26  84
145  4  8  7  47
146  4  24  23  79
147  4  19  18  68
148  5  50  9  51
149  5  40  4  41
150  4  26  25  83
151  5  56  12  57
152  5  33  1  34
153  6  30  29  90
154  5  54  11  55
155  4  10  9  51
156  4  14  13  58
157  4  16  15  63
158  4  11  10  52
159  4  7  6  44
160  5  68  18  69
161  5  86  27  87
162  5  46  7  47
163  5  44  6  45
164  4  28  27  86
165  4  11  10  53
166  4  21  20  72
167  4  28  27  87
168  5  80  24  81
169  4  6  5  42
170  4  12  11  54
171  5  72  20  73
172  5  88  28  89
173  4  12  11  55
174  4  17  16  64
175  4  27  26  85
176  4  25  24  80
177  5  60  14  61

Dihedrals

1  1  4  3  2  1
2  1  5  4  3  2
3  1  6  5  4  3
4  1  7  6  5  4
5  1  8  7  6  5
6  1  9  8  7  6
7  1  10  9  8  7
8  1  11  10  9  8
9  1  12  11  10  9
10  1  13  12  11  10
11  1  14  13  12  11
12  1  15  14  13  12
13  1  16  15  14  13
14  1  17  16  15  14
15  1  18  17  16  15
16  1  19  18  17  16
17  1  20  19  18  17
18  1  21  20  19  18
19  1  22  21  20  19
20  1  23  22  21  20
21  1  24  23  22  21
22  1  25  24  23  22
23  1  26  25  24  23
24  1  27  26  25  24
25  1  28  27  26  25
26  1  29  28  27  26
27  2  30  29  28  27
28  3  31  30  29  28
29  4  33  1  2  3
30  4  41  4  3  39
31  4  47  7  6  45
32  4  70  19  18  17
33  4  37  2  1  35
34  4  68  18  17  66
35  4  63  15  14  60
36  4  58  13  12  11
37  4  50  9  8  7
38  4  86  27  26  25
39  4  64  16  17  18
40  3  91  29  30  32
41  4  72  20  21  22
42  4  71  19  18  68
43  4  70  19  18  69
44  4  86  27  26  84
45  4  83  25  24  81
46  4  85  26  25  83
47  4  74  21  20  19
48  4  73  20  21  22
49  4  40  4  3  39
50  4  41  4  3  38
51  4  57  12  11  10
52  4  48  8  7  6
53  4  54  11  12  13
54  4  41  4  5  6
55  5  89  28  29  30
56  4  83  25  24  23
57  4  54  11  10  9
58  4  87  27  26  84
59  4  80  24  25  26
60  4  88  28  27  86
61  4  40  4  3  2
62  4  49  8  7  47
63  4  42  5  4  40
64  4  89  28  27  26
65  4  86  27  28  29
66  4  42  5  4  3
67  4  81  24  25  26
68  4  81  24  23  78
69  4  76  22  21  74
70  4  67  17  16  15
71  4  84  26  25  82
72  4  37  2  3  4
73  4  57  12  13  14
74  4  66  17  16  15
75  4  57  12  11  55
76  4  61  14  13  59
77  4  35  1  2  3
78  4  79  23  22  76
79  4  38  3  2  1
80  4  49  8  7  6
81  4  79  23  22  77
82  4  55  11  10  52
83  4  61  14  13  58
84  4  87  27  26  25
85  4  62  15  14  13
86  4  89  28  27  87
87  4  46  7  8  9
88  4  73  20  19  71
89  4  79  23  24  25
90  4  84  26  27  28
91  4  68  18  17  16
92  4  73  20  19  18
93  4  61  14  15  16
94  4  70  19  20  21
95  4  76  22  21  20
96  4  90  29  28  89
97  4  78  23  22  77
98  4  63  15  14  61
99  4  46  7  6  5
100  4  62  15  14  61
101  4  83  25  26  27
102  4  45  6  7  8
103  4  74  21  22  23
104  4  51  9  8  7
105  4  60  14  15  16
106  4  63  15  14  13
107  4  49  8  9  10
108  4  55  11  12  13
109  4  36  2  1  35
110  4  39  3  4  5
111  4  59  13  12  57
112  4  78  23  22  21
113  4  48  8  7  47
114  4  49  8  7  46
115  4  66  17  16  65
116  4  68  18  19  20
117  4  71  19  18  17
118  3  90  29  30  31
119  4  55  11  10  9
120  4  65  16  17  18
121  4  63  15  16  17
122  4  52  10  11  12
123  4  91  29  28  88
124  4  69  18  17  16
125  4  66  17  16  64
126  4  62  15  16  17
127  4  78  23  24  25
128  4  40  4  3  38
129  4  72  20  19  18
130  4  77  22  23  24
131  4  80  24  23  22
132  4  67  17  18  19
133  5  88  28  29  30
134  4  34  1  2  3
135  4  87  27  28  29
136  4  66  17  18  19
137  4  42  5  4  41
138  4  45  6  5  4
139  4  52  10  9  8
140  4  59  13  14  15
141  4  56  12  11  10
142  4  61  14  13  12
143  4  76  22  21  75
144  4  75  21  20  72
145  4  77  22  21  20
146  4  50  9  8  48
147  4  74  21  20  73
148  4  44  6  5  4
149  4  64  16  15  14
150  4  46  7  6  45
151  4  47  7  6  44
152  4  82  25  24  81
153  4  76  22  23  24
154  4  42  5  6  7
155  4  79  23  22  21
156  4  41  4  3  2
157  4  51  9  10  11
158  4  38  3  4  5
159  4  43  5  4  41
160  4  72  20  19  71
161  4  46  7  6  44
162  4  53  10  9  51
163  4  55  11  10  53
164  4  37  2  1  33
165  4  73  20  19  70
166  4  40  4  5  6
167  4  36  2  1  34
168  4  69  18  17  66
169  4  86  27  26  85
170  4  80  24  23  78
171  4  43  5  4  3
172  4  82  25  24  23
173  4  82  25  26  27
174  4  65  16  15  62
175  4  64  16  15  63
176  4  56  12  11  54
177  4  56  12  11  55
178  4  52  10  9  50
179  4  67  17  16  64
180  4  44  6  5  42
181  4  59  13  12  11
182  4  75  21  22  23
183  4  56  12  13  14
184  4  69  18  17  67
185  4  48  8  9  10
186  4  53  10  9  8
187  4  50  9  10  11
188  4  75  21  20  73
189  3  91  29  30  31
190  4  43  5  6  7
191  3  90  29  30  32
192  4  75  21  20  19
193  4  71  19  20  21
194  4  60  14  13  59
195  3  32  30  29  28
196  4  57  12  11  54
197  4  36  2  3  4
198  4  91  29  28  89
199  4  82  25  24  80
200  4  78  23  22  76
201  4  39  3  2  1
202  4  69  18  19  20
203  4  81  24  23  79
204  4  51  9  8  48
205  4  50  9  8  49
206  4  85  26  25  82
207  4  84  26  25  83
208  4  88  28  27  26
209  4  45  6  5  43
210  4  87  27  26  85
211  4  60  14  13  58
212  4  90  29  28  27
213  4  72  20  19  70
214  4  60  14  13  12
215  4  43  5  4  40
216  4  58  13  12  56
217  4  54  11  10  52
218  4  85  26  27  28
219  4  39  3  2  37
220  4  89  28  27  86
221  4  88  28  27  87
222  4  48  8  7  46
223  4  77  22  21  75
224  4  91  29  28  27
225  4  90  29  28  88
226  4  51  9  8  49
227  4  67  17  16  65
228  4  58  13  14  15
229  4  53  10  11  12
230  4  45  6  5  42
231  4  44  6  5  43
232  4  36  2  1  33
233  4  37  2  1  34
234  4  84  26  25  24
235  4  81  24  23  22
236  4  70  19  18  68
237  4  64  16  15  62
238  4  47  7  6  5
239  4  44  6  7  8
240  4  62  15  14  60
241  4  71  19  18  69
242  4  80  24  23  79
243  4  39  3  2  36
244  4  38  3  2  37
245  4  58  13  12  57
246  4  59  13  12  56
247  4  65  16  15  14
248  4  38  3  2  36
249  4  47  7  8  9
250  4  52  10  9  51
251  4  53  10  9  50
252  4  85  26  25  24
253  4  68  18  17  67
254  4  77  22  21  74
255  4  65  16  15  63
256  4  74  21  20  72
257  4  83  25  24  80
258  4  54  11  10  53

Impropers

1  1  30  29  31  32
2  2  1  34  33  2
3  2  1  2  35  33
4  2  2  1  3  36
5  2  2  1  3  37
6  2  3  2  4  38
7  2  3  2  4  39
8  2  4  3  5  40
9  2  4  41  3  5
10  2  5  42  4  6
11  2  5  43  4  6
12  2  6  44  5  7
13  2  6  5  45  7
14  2  7  8  46  6
15  2  7  8  47  6
16  2  8  9  7  48
17  2  8  49  9  7
18  2  9  50  10  8
19  2  9  10  51  8
20  2  10  9  11  52
21  2  10  9  11  53
22  2  11  10  12  54
23  2  11  10  12  55
24  2  12  11  13  56
25  2  12  57  11  13
26  2  13  58  12  14
27  2  13  59  12  14
28  2  14  60  13  15
29  2  14  13  61  15
30  2  15  16  62  14
31  2  15  16  63  14
32  2  16  17  15  64
33  2  16  65  17  15
34  2  17  66  18  16
35  2  17  18  67  16
36  2  18  17  19  68
37  2  18  17  19  69
38  2  19  18  20  70
39  2  19  18  20  71
40  2  20  19  21  72
41  2  20  73  19  21
42  2  21  74  20  22
43  2  21  75  20  22
44  2  22  76  21  23
45  2  22  21  77  23
46  2  23  24  78  22
47  2  23  24  79  22
48  2  24  25  23  80
49  2  24  81  25  23
50  2  25  82  26  24
51  2  25  26  83  24
52  2  26  25  27  84
53  2  26  25  27  85
54  2  27  26  28  86
55  2  27  26  28  87
56  2  28  27  29  88
57  2  28  89  27  29
58  2  29  90  28  30
59  2  29  91  28  30
