variable FnConf file "infiles.txt"
variable FnOut string "energies.txt"

label begin

units           real
boundary        p p p
atom_style      full
kspace_style    ewald  1.0e-8
bond_style      harmonic # E = K(r-r0)^2
angle_style     harmonic # E = K(t-t0)^2
improper_style  cvff     # E = K[1+d*cos(n*phi)]
dihedral_style  opls     # E = K1/2(1+cos(phi)) + K2/2(1-cos(2phi)) 
                         #     + K3/2(1+cos(3phi)) + K4/2(1-cos(4phi))
pair_style      lj/cut/coul/long 10.0
pair_modify     shift yes mix geometric #OPLS-AA uses geometric mixing
special_bonds   lj/coul 0.0 0.0 0.5 angle yes dihedral yes

read_data ${FnConf}
pair_coeff 1 2 0.0331 3.61

thermo 1
thermo_style custom step pe

fix 1 all nve
run 0
unfix 1
variable epot equal pe
print "${FnConf} ${epot}" append ${FnOut} screen no universe no
clear
next FnConf
jump SELF begin
quit
