#C16: HexadecaneThiolate

50 atoms
3 atom types

49 bonds
3 bond types

96 angles
5 angle types

135 dihedrals
4 dihedral types

32 impropers
1 improper types

-0.890238982511229  0.892311349858014  xlo xhi
-1.45892825898842  1.46651329527858  ylo yhi
-1.42871330122233  19.7569665553408  zlo zhi

Masses

1  12.011
2  32.06
3  1.008

Pair Coeffs

1  0.066  3.5
2  0.355  3.55
3  0.03  2.5

Bond Coeffs

1  268.0  1.529
2  340.0  1.77
3  340.0  1.09

Angle Coeffs

1  58.35  112.7
2  50.0  108.6
3  37.5  110.7
4  33.0  107.8
5  35.0  109.5

Dihedral Coeffs

1  1.3  -0.2  0.2  0.0
2  1.262  -0.198  0.465  0.0
3  0.0  0.0  0.3  0.0
4  0.0  0.0  0.452  0.0

Improper Coeffs

1  0.0  -1.0  2.0

Atoms # full

1  1  1  -0.2092  -3.02153119190212e-18    3.66634065401969e-14    18.8903345826695 
2  1  1  -0.1576   0.00275448857373509   -0.808031034226736    17.6029037066536 
3  1  1  -0.1568   0.00146259121510596    0.104980572759074    16.3793310077875 
4  1  1  -0.1574   0.00602893356675675   -0.705910001671527    15.0842535759646 
5  1  1  -0.1574   0.00289463515812493    0.215091868956192    13.8662878143466 
6  1  1  -0.1572   0.00564128809676876   -0.591121051546409    12.5694512963489 
7  1  1  -0.1577   0.00430617008826591    0.333466247868217    11.3551422887973 
8  1  1  -0.1576   0.00525020615267789   -0.471370261079785    10.0574380360261 
9  1  1  -0.1576   0.00571285243753462    0.453973042428062    8.84383902942979 
10  1  1  -0.1576   0.00484508165240586   -0.350336077029858    7.54698054037607 
11  1  1  -0.1579   0.00711242479960018    0.573380729226879    6.33204494262041 
12  1  1  -0.1581   0.00444643928891402   -0.231447236356381    5.03432760404611 
13  1  1  -0.1567   0.00490272601706462    0.69282437523582    3.81903991867808 
14  1  1  -0.1686   0.000434107545282411   -0.110618708865416    2.52044952931011 
15  1  1  -0.1506   0.00269459157348074    0.813557010601382    1.29932265934124 
16  1  1  -0.0859   0    0    0 
17  1  2  -0.8979   0.000636075934557497    1.14581164561101   -1.42871330122233 
18  1  3   0.0695   0.0022642936860493   -0.667848758191465    19.7569665553408 
19  1  3   0.0695  -0.890238982511229    0.634283914368504    18.9507857968078 
20  1  3   0.0695   0.885772312406753    0.640252729162586    18.950839403746 
21  1  3   0.0771  -0.878910873274069   -1.45892825898842    17.5833272152589 
22  1  3   0.0771   0.887982625798191   -1.45454959901648    17.5855399902216 
23  1  3   0.0782   0.882438921632757    0.757674737937467    16.4060427315419 
24  1  3   0.0782  -0.883960997159499    0.751833926274023    16.4035680578618 
25  1  3   0.0779  -0.874484932128565   -1.35905646089175    15.0554654234297 
26  1  3   0.0779   0.892311349858014   -1.35130051527139    15.0567389484324 
27  1  3   0.0781   0.883838215679572    0.867966284571665    13.8964282750731 
28  1  3   0.0781  -0.882472995108675    0.861960741491719    13.8964184734892 
29  1  3   0.0778  -0.876325040283832   -1.24254948198781    12.5384011028633 
30  1  3   0.0778   0.89050959547982   -1.23834682398253    12.5395435701979 
31  1  3   0.0779   0.886855000664736    0.98400022108632    11.3855744713869 
32  1  3   0.0779  -0.879934659129969    0.981597761791075    11.3856635322764 
33  1  3   0.0773  -0.878322557058778   -1.12025697692874    10.0271504394621 
34  1  3   0.0773   0.889180720195881   -1.11975859991672    10.0282579657109 
35  1  3   0.0775   0.889223986269237    1.1028725464518    8.87647975970916 
36  1  3   0.0775  -0.877573721740199    1.10386251592749    8.87680090304166 
37  1  3   0.0761  -0.87931858069126   -0.9987498492226    7.516394845651 
38  1  3   0.0761   0.887401621017002   -1.00105284352086    7.51689763107062 
39  1  3   0.0764   0.891707410655812    1.22067546507244    6.36451454755598 
40  1  3   0.0764  -0.874887274017113    1.22491636905444    6.36397638514517 
41  1  3   0.0732  -0.879739656895152   -0.879424630967228    5.00582926921545 
42  1  3   0.0732   0.886495419702064   -0.883027115589301    5.00360467887714 
43  1  3   0.0745   0.889957930086737    1.34042710444463    3.85013655628549 
44  1  3   0.0745  -0.876209795396468    1.34500178747022    3.85293175515129 
45  1  3   0.0642  -0.885496466113298   -0.756662543220915    2.49191454642556 
46  1  3   0.0642   0.881224973820791   -0.763192500237878    2.49034772206517 
47  1  3   0.0785   0.888367502124644    1.46171754523439    1.34659956554381 
48  1  3   0.0785  -0.879159040242015    1.46651329527858    1.34689181693702 
49  1  3   0.0318  -0.876267749020715   -0.659971583275296    0.000298153088571414 
50  1  3   0.0318   0.873965304997676   -0.662944164054545   -0.0011753749782931 

Bonds

1  1  2  1
2  1  3  2
3  1  4  3
4  1  5  4
5  1  6  5
6  1  7  6
7  1  8  7
8  1  9  8
9  1  10  9
10  1  11  10
11  1  12  11
12  1  13  12
13  1  14  13
14  1  15  14
15  1  16  15
16  2  17  16
17  3  18  1
18  3  19  1
19  3  20  1
20  3  21  2
21  3  22  2
22  3  23  3
23  3  24  3
24  3  25  4
25  3  26  4
26  3  27  5
27  3  28  5
28  3  29  6
29  3  30  6
30  3  31  7
31  3  32  7
32  3  33  8
33  3  34  8
34  3  35  9
35  3  36  9
36  3  37  10
37  3  38  10
38  3  39  11
39  3  40  11
40  3  41  12
41  3  42  12
42  3  43  13
43  3  44  13
44  3  45  14
45  3  46  14
46  3  47  15
47  3  48  15
48  3  49  16
49  3  50  16

Angles

1  1  1  2  3
2  1  2  3  4
3  1  3  4  5
4  1  4  5  6
5  1  5  6  7
6  1  6  7  8
7  1  7  8  9
8  1  8  9  10
9  1  9  10  11
10  1  10  11  12
11  1  11  12  13
12  1  12  13  14
13  1  13  14  15
14  1  14  15  16
15  2  15  16  17
16  3  2  1  18
17  3  2  1  19
18  3  2  1  20
19  3  1  2  21
20  3  1  2  22
21  3  2  3  23
22  3  2  3  24
23  3  3  4  25
24  3  3  4  26
25  3  4  5  27
26  3  4  5  28
27  3  5  6  29
28  3  5  6  30
29  3  6  7  31
30  3  6  7  32
31  3  7  8  33
32  3  7  8  34
33  3  8  9  35
34  3  8  9  36
35  3  9  10  37
36  3  9  10  38
37  3  10  11  39
38  3  10  11  40
39  3  11  12  41
40  3  11  12  42
41  3  12  13  43
42  3  12  13  44
43  3  13  14  45
44  3  13  14  46
45  3  14  15  47
46  3  14  15  48
47  3  15  16  49
48  3  15  16  50
49  4  47  15  48
50  3  11  10  38
51  4  25  4  26
52  3  4  3  23
53  4  41  12  42
54  3  4  3  24
55  5  17  16  50
56  3  5  4  26
57  4  27  5  28
58  4  35  9  36
59  4  39  11  40
60  4  18  1  19
61  3  9  8  34
62  4  31  7  32
63  3  12  11  39
64  3  8  7  32
65  3  5  4  25
66  3  8  7  31
67  3  15  14  46
68  4  21  2  22
69  4  45  14  46
70  3  13  12  42
71  4  33  8  34
72  4  23  3  24
73  3  16  15  47
74  3  6  5  27
75  4  49  16  50
76  4  43  13  44
77  3  7  6  29
78  3  10  9  35
79  4  29  6  30
80  4  18  1  20
81  4  37  10  38
82  3  15  14  45
83  3  13  12  41
84  3  9  8  33
85  3  3  2  21
86  3  7  6  30
87  3  16  15  48
88  3  14  13  43
89  3  3  2  22
90  3  6  5  28
91  3  12  11  40
92  5  17  16  49
93  3  11  10  37
94  3  10  9  36
95  4  19  1  20
96  3  14  13  44

Dihedrals

1  1  4  3  2  1
2  1  5  4  3  2
3  1  6  5  4  3
4  1  7  6  5  4
5  1  8  7  6  5
6  1  9  8  7  6
7  1  10  9  8  7
8  1  11  10  9  8
9  1  12  11  10  9
10  1  13  12  11  10
11  1  14  13  12  11
12  1  15  14  13  12
13  1  16  15  14  13
14  2  17  16  15  14
15  3  18  1  2  3
16  3  34  8  7  6
17  3  50  16  15  48
18  3  31  7  6  5
19  3  31  7  8  9
20  3  38  10  9  8
21  3  35  9  10  11
22  3  29  6  5  4
23  3  43  13  12  41
24  3  47  15  14  13
25  3  26  4  3  23
26  3  25  4  3  24
27  3  19  1  2  3
28  4  48  15  16  17
29  3  33  8  7  6
30  3  32  7  6  29
31  3  31  7  6  30
32  3  25  4  5  6
33  3  32  7  8  9
34  3  28  5  4  3
35  3  23  3  4  5
36  3  24  3  2  22
37  3  44  13  12  41
38  3  43  13  12  42
39  3  45  14  13  44
40  3  36  9  8  7
41  3  29  6  5  27
42  3  22  2  3  4
43  3  49  16  15  14
44  3  24  3  2  21
45  3  23  3  2  22
46  3  22  2  1  18
47  3  26  4  3  2
48  3  28  5  6  7
49  3  33  8  7  32
50  3  34  8  7  31
51  3  30  6  7  8
52  3  40  11  12  13
53  3  22  2  1  20
54  3  46  14  13  43
55  3  36  9  10  11
56  3  21  2  1  18
57  3  37  10  9  35
58  3  38  10  9  36
59  3  32  7  6  30
60  3  39  11  10  38
61  3  44  13  14  15
62  3  40  11  10  38
63  3  35  9  8  7
64  3  35  9  8  33
65  3  41  12  11  10
66  3  39  11  10  9
67  3  30  6  5  4
68  3  27  5  6  7
69  3  40  11  10  37
70  3  37  10  9  8
71  3  42  12  11  39
72  3  41  12  11  40
73  3  48  15  14  46
74  3  24  3  4  5
75  3  48  15  14  13
76  3  41  12  11  39
77  3  42  12  11  40
78  3  45  14  15  16
79  4  47  15  16  17
80  3  21  2  1  20
81  3  22  2  1  19
82  3  48  15  14  45
83  3  47  15  14  46
84  3  27  5  4  25
85  3  33  8  7  31
86  3  39  11  12  13
87  3  42  12  13  14
88  3  29  6  7  8
89  3  32  7  6  5
90  3  36  9  8  34
91  3  31  7  6  29
92  3  45  14  13  43
93  3  25  4  3  23
94  3  50  16  15  14
95  3  34  8  9  10
96  3  30  6  5  28
97  3  23  3  2  1
98  3  42  12  11  10
99  3  43  13  12  11
100  3  23  3  2  21
101  3  34  8  7  32
102  3  21  2  3  4
103  3  36  9  8  33
104  3  35  9  8  34
105  3  24  3  2  1
106  3  20  1  2  3
107  3  38  10  9  35
108  3  37  10  9  36
109  3  28  5  4  26
110  3  28  5  4  25
111  3  27  5  4  26
112  3  49  16  15  47
113  3  26  4  5  6
114  3  44  13  12  42
115  3  46  14  13  44
116  3  39  11  10  37
117  3  27  5  4  3
118  3  45  14  13  12
119  3  40  11  10  9
120  3  37  10  11  12
121  3  21  2  1  19
122  3  29  6  5  28
123  3  30  6  5  27
124  3  47  15  14  45
125  3  25  4  3  2
126  3  41  12  13  14
127  3  44  13  12  11
128  3  33  8  9  10
129  3  26  4  3  24
130  3  43  13  14  15
131  3  46  14  13  12
132  3  46  14  15  16
133  3  38  10  11  12
134  3  50  16  15  47
135  3  49  16  15  48

Impropers

1  1  1  2  19  18
2  1  1  2  20  18
3  1  2  1  3  21
4  1  2  1  3  22
5  1  3  2  4  23
6  1  3  2  4  24
7  1  4  25  3  5
8  1  4  26  3  5
9  1  5  27  4  6
10  1  5  4  28  6
11  1  6  5  29  7
12  1  6  5  30  7
13  1  7  8  31  6
14  1  7  8  6  32
15  1  8  33  9  7
16  1  8  9  34  7
17  1  9  10  35  8
18  1  9  10  36  8
19  1  10  9  11  37
20  1  10  9  11  38
21  1  11  10  12  39
22  1  11  10  12  40
23  1  12  41  11  13
24  1  12  42  11  13
25  1  13  43  12  14
26  1  13  12  44  14
27  1  14  13  45  15
28  1  14  13  46  15
29  1  15  16  47  14
30  1  15  16  14  48
31  1  16  49  17  15
32  1  16  17  50  15
