#C14: TetradecaneThiolate

44 atoms
3 atom types

43 bonds
3 bond types

84 angles
5 angle types

117 dihedrals
4 dihedral types

28 impropers
1 improper types

-0.897250437483159  0.893819361868233  xlo xhi
-1.45879896759541  1.45312313476447  ylo yhi
-1.42272091644091  17.2550202859193  zlo zhi

Masses

1  12.011
2  32.06
3  1.008

Pair Coeffs

1  0.066  3.5
2  0.355  3.55
3  0.03  2.5

Bond Coeffs

1  268.0  1.529
2  340.0  1.77
3  340.0  1.09

Angle Coeffs

1  58.35  112.7
2  50.0  108.6
3  37.5  110.7
4  33.0  107.8
5  35.0  109.5

Dihedral Coeffs

1  1.3  -0.2  0.2  0.0
2  1.262  -0.198  0.465  0.0
3  0.0  0.0  0.3  0.0
4  0.0  0.0  0.452  0.0

Improper Coeffs

1  0.0  -1.0  2.0

Atoms # full

1  1  1  -0.2091  -1.38881584083072e-17    4.33664417093044e-15    16.3949287387655 
2  1  1  -0.1577  -0.00765313775215811    0.796572854857395    15.1003967320593 
3  1  1  -0.1568   0.000618779497687318   -0.125789488936187    13.8834688358236 
4  1  1  -0.1573  -0.00527463737094348    0.674983996045747    12.5821178710614 
5  1  1  -0.1575   0.00125033306672678   -0.254103846148519    11.3692810441355 
6  1  1  -0.1572  -0.00640724735282626    0.540567588446464    10.0653598638103 
7  1  1  -0.1574  -0.00165071901899058   -0.391876536201343    8.85516492647661 
8  1  1  -0.1574  -0.00749555974654985    0.401406365956996    7.55037861466915 
9  1  1  -0.1577  -0.000943917791646213   -0.531562287211621    6.34102447274362 
10  1  1  -0.1582  -0.00497891374707073    0.261745881512311    5.03624300876449 
11  1  1  -0.1564  -0.000227575727600624   -0.67015714943883    3.82520688734156 
12  1  1  -0.1686  -0.00248026754459321    0.12507137933603    2.52042238478869 
13  1  1  -0.1504   0.000469262010319487   -0.806753396412385    1.30474839075212 
14  1  1  -0.086   0    0    0 
15  1  2  -0.8981   0.00575877415888517   -1.15378484798584   -1.42272091644091 
16  1  3   0.0691  -0.00477324927790563    0.676422128708131    17.2550202859193 
17  1  3   0.0691   0.893819361868233   -0.62854774836796    16.4608022764801 
18  1  3   0.0691  -0.882495014872542   -0.643837179783674    16.4618955152544 
19  1  3   0.0768   0.87002337360181    1.45312313476447    15.0765063622113 
20  1  3   0.0768  -0.897250437483159    1.43671647071104    15.0768586800342 
21  1  3   0.078  -0.877220662760677   -0.782947850020922    13.9140310113343 
22  1  3   0.078   0.889119861546555   -0.768321985556339    13.9149367589369 
23  1  3   0.0776   0.87356729675115    1.33072139659738    12.5483270609745 
24  1  3   0.0776  -0.89373702756504    1.31763214133549    12.5495467125581 
25  1  3   0.0777  -0.876530255604756   -0.911024429042519    11.4046858633238 
26  1  3   0.0777   0.889651158189575   -0.896552721946655    11.4031493539067 
27  1  3   0.0772   0.872048298071199    1.19691982958988    10.0284271633973 
28  1  3   0.0772  -0.894953412147    1.18357329494886    10.0306608820541 
29  1  3   0.0773  -0.880827108895038   -1.04704306533329    8.89283150038125 
30  1  3   0.0773   0.885628832997093   -1.03629989513689    8.89134740196352 
31  1  3   0.076   0.870907805514182    1.05695690248087    7.51530124358914 
32  1  3   0.076  -0.895225241079832    1.04477339598499    7.51472297201803 
33  1  3   0.0763  -0.880055098504152   -1.18625915503605    6.37663132190422 
34  1  3   0.0763   0.886244614182166   -1.17584626841201    6.3784674200465 
35  1  3   0.0731   0.875348570601731    0.915785108769203    5.00139846816889 
36  1  3   0.0731  -0.89174215298154    0.906603817633864    5.00149906161618 
37  1  3   0.0745  -0.881159249809215   -1.32264335309887    3.86101063202098 
38  1  3   0.0745   0.885953569640514   -1.31580071258718    3.86299335924828 
39  1  3   0.0642   0.878937183618067    0.776982299595421    2.48661011434623 
40  1  3   0.0642  -0.88800886283467    0.771618595200304    2.48671061411822 
41  1  3   0.0785  -0.882143441288403   -1.45879896759541    1.35492324477603 
42  1  3   0.0785   0.885306615648786   -1.4549131822791    1.35625868672573 
43  1  3   0.032   0.872697716164744    0.664433769374242   -0.00374573303601842 
44  1  3   0.032  -0.877498765891706    0.658041832300173   -0.00672530308346422 

Bonds

1  1  2  1
2  1  3  2
3  1  4  3
4  1  5  4
5  1  6  5
6  1  7  6
7  1  8  7
8  1  9  8
9  1  10  9
10  1  11  10
11  1  12  11
12  1  13  12
13  1  14  13
14  2  15  14
15  3  16  1
16  3  17  1
17  3  18  1
18  3  19  2
19  3  20  2
20  3  21  3
21  3  22  3
22  3  23  4
23  3  24  4
24  3  25  5
25  3  26  5
26  3  27  6
27  3  28  6
28  3  29  7
29  3  30  7
30  3  31  8
31  3  32  8
32  3  33  9
33  3  34  9
34  3  35  10
35  3  36  10
36  3  37  11
37  3  38  11
38  3  39  12
39  3  40  12
40  3  41  13
41  3  42  13
42  3  43  14
43  3  44  14

Angles

1  1  1  2  3
2  1  2  3  4
3  1  3  4  5
4  1  4  5  6
5  1  5  6  7
6  1  6  7  8
7  1  7  8  9
8  1  8  9  10
9  1  9  10  11
10  1  10  11  12
11  1  11  12  13
12  1  12  13  14
13  2  13  14  15
14  3  2  1  16
15  3  2  1  17
16  3  2  1  18
17  3  1  2  19
18  3  1  2  20
19  3  2  3  21
20  3  2  3  22
21  3  3  4  23
22  3  3  4  24
23  3  4  5  25
24  3  4  5  26
25  3  5  6  27
26  3  5  6  28
27  3  6  7  29
28  3  6  7  30
29  3  7  8  31
30  3  7  8  32
31  3  8  9  33
32  3  8  9  34
33  3  9  10  35
34  3  9  10  36
35  3  10  11  37
36  3  10  11  38
37  3  11  12  39
38  3  11  12  40
39  3  12  13  41
40  3  12  13  42
41  3  13  14  43
42  3  13  14  44
43  3  9  8  32
44  3  13  12  40
45  3  3  2  20
46  4  41  13  42
47  4  37  11  38
48  4  23  4  24
49  3  12  11  37
50  4  19  2  20
51  4  31  8  32
52  4  16  1  18
53  3  5  4  24
54  3  13  12  39
55  4  39  12  40
56  4  16  1  17
57  3  4  3  22
58  4  21  3  22
59  3  7  6  28
60  3  10  9  34
61  4  29  7  30
62  4  43  14  44
63  3  11  10  36
64  3  5  4  23
65  3  8  7  29
66  3  11  10  35
67  3  7  6  27
68  3  3  2  19
69  4  25  5  26
70  3  14  13  41
71  5  15  14  44
72  3  4  3  21
73  3  6  5  26
74  4  33  9  34
75  4  27  6  28
76  3  10  9  33
77  3  14  13  42
78  4  35  10  36
79  3  6  5  25
80  3  12  11  38
81  3  9  8  31
82  4  17  1  18
83  3  8  7  30
84  5  15  14  43

Dihedrals

1  1  4  3  2  1
2  1  5  4  3  2
3  1  6  5  4  3
4  1  7  6  5  4
5  1  8  7  6  5
6  1  9  8  7  6
7  1  10  9  8  7
8  1  11  10  9  8
9  1  12  11  10  9
10  1  13  12  11  10
11  1  14  13  12  11
12  2  15  14  13  12
13  3  16  1  2  3
14  3  23  4  3  21
15  3  35  10  11  12
16  3  35  10  9  8
17  3  28  6  7  8
18  3  42  13  12  39
19  3  41  13  12  40
20  3  21  3  2  20
21  3  22  3  2  19
22  3  38  11  10  35
23  3  25  5  4  3
24  3  39  12  11  10
25  3  31  8  7  6
26  3  37  11  10  35
27  3  41  13  12  39
28  3  44  14  13  41
29  3  38  11  10  9
30  3  39  12  13  14
31  3  20  2  1  18
32  3  25  5  4  23
33  3  42  13  12  40
34  3  43  14  13  41
35  3  38  11  10  36
36  3  40  12  11  38
37  3  25  5  6  7
38  3  28  6  5  4
39  3  37  11  10  9
40  3  30  7  6  5
41  3  29  7  8  9
42  3  33  9  8  7
43  3  29  7  6  28
44  3  30  7  6  27
45  3  34  9  8  32
46  3  32  8  7  30
47  3  33  9  8  32
48  3  34  9  8  31
49  3  44  14  13  12
50  3  27  6  5  25
51  3  23  4  5  6
52  3  26  5  4  24
53  3  35  10  9  33
54  3  41  13  12  11
55  3  34  9  10  11
56  3  37  11  12  13
57  3  40  12  11  10
58  3  39  12  11  37
59  3  32  8  9  10
60  3  26  5  4  23
61  3  25  5  4  24
62  3  24  4  3  22
63  3  26  5  4  3
64  3  43  14  13  12
65  3  38  11  12  13
66  3  36  10  11  12
67  3  31  8  7  29
68  3  43  14  13  42
69  3  30  7  8  9
70  3  27  6  5  4
71  3  23  4  3  2
72  3  32  8  7  6
73  3  42  13  12  11
74  3  24  4  3  21
75  3  23  4  3  22
76  3  19  2  1  16
77  3  35  10  9  34
78  3  36  10  9  33
79  3  21  3  2  19
80  3  20  2  1  17
81  3  19  2  1  18
82  3  22  3  2  20
83  3  37  11  10  36
84  3  21  3  4  5
85  3  34  9  8  7
86  3  31  8  9  10
87  3  24  4  3  2
88  3  36  10  9  8
89  3  24  4  5  6
90  3  33  9  10  11
91  3  39  12  11  38
92  3  40  12  11  37
93  3  36  10  9  34
94  3  44  14  13  42
95  4  41  13  14  15
96  3  27  6  7  8
97  3  20  2  3  4
98  3  17  1  2  3
99  3  40  12  13  14
100  3  28  6  5  26
101  3  31  8  7  30
102  3  32  8  7  29
103  3  28  6  5  25
104  3  27  6  5  26
105  3  19  2  3  4
106  3  22  3  2  1
107  3  29  7  6  5
108  3  18  1  2  3
109  3  19  2  1  17
110  3  20  2  1  16
111  4  42  13  14  15
112  3  21  3  2  1
113  3  22  3  4  5
114  3  33  9  8  31
115  3  26  5  6  7
116  3  29  7  6  27
117  3  30  7  6  28

Impropers

1  1  1  17  16  2
2  1  1  18  16  2
3  1  2  1  19  3
4  1  2  1  3  20
5  1  3  2  4  21
6  1  3  2  4  22
7  1  4  3  5  23
8  1  4  3  5  24
9  1  5  25  4  6
10  1  5  26  4  6
11  1  6  27  5  7
12  1  6  28  5  7
13  1  7  29  6  8
14  1  7  8  30  6
15  1  8  9  7  31
16  1  8  9  7  32
17  1  9  33  10  8
18  1  9  34  10  8
19  1  10  9  35  11
20  1  10  9  11  36
21  1  11  10  12  37
22  1  11  10  12  38
23  1  12  11  13  39
24  1  12  11  13  40
25  1  13  41  12  14
26  1  13  42  12  14
27  1  14  43  13  15
28  1  14  44  13  15
