#C8

26 atoms
2 atom types

25 bonds
2 bond types

48 angles
3 angle types

63 dihedrals
2 dihedral types

16 impropers
1 improper types

-0.885077037145434  0.891796530647779  xlo xhi
-0.703540562100544  2.05374799770505  ylo yhi
0.0359143269829784  10.5521173069107  zlo zhi

Masses

1  12.011
2  1.008

Pair Coeffs

1  0.066  3.5
2  0.03  2.5

Bond Coeffs

1  268.0  1.529
2  340.0  1.09

Angle Coeffs

1  58.35  112.7
2  37.5  110.7
3  33.0  107.8

Dihedral Coeffs

1  1.3  -0.2  0.2  0.0
2  0.0  0.0  0.3  0.0

Improper Coeffs

1  0.0  -1.0  2.0

Atoms # full

1  1  1  -0.2388   0.00241705038014528    0.675278100538402    0.861262248795747 
2  1  1  -0.1794   0.00254436173315093   -0.0556995631077698    2.19395562652455 
3  1  1  -0.1782   0.00417597733189626    0.922926685176082    3.36829456073409 
4  1  1  -0.179   0.00610038787815772    0.184743368513613    4.70730041809441 
5  1  1  -0.1791   0.00593369725159274    1.1657973232546    5.88069001775912 
6  1  1  -0.1782   0.00605818153955513    0.427126017918327    7.22056893440662 
7  1  1  -0.1792   0.00407974904914672    1.40626285586404    8.39404772270343 
8  1  1  -0.2387   0.00241705038014529    0.675278100538406    9.72673738166934 
9  1  2   0.0807  -5.86450525457216e-05   -0.0434525133159599    0.0359143269829784 
10  1  2   0.0807   0.891796530647779    1.30546900895824    0.760880756358856 
11  1  2   0.0807  -0.884579888337059    1.30907872392456    0.763030368524518 
12  1  2   0.0882   0.88540123007743   -0.703540562100544    2.24798928771251 
13  1  2   0.0882  -0.88139763426427   -0.701859946703632    2.24907988056344 
14  1  2   0.0893  -0.878735587472111    1.57089878879041    3.30634898322481 
15  1  2   0.0893   0.886934090267205    1.57095260305204    3.30392873200552 
16  1  2   0.0891   0.890303243535103   -0.4611195596377    4.76812165277371 
17  1  2   0.0891  -0.876588844759492   -0.463617106008605    4.77034218966598 
18  1  2   0.0891  -0.877569549131447    1.81244605439587    5.81801863159283 
19  1  2   0.0891   0.88922184370652    1.81275571958344    5.81801970140577 
20  1  2   0.0893   0.88970072030932   -0.219532929971153    7.28209415599091 
21  1  2   0.0893  -0.875993146011314   -0.221790057772464    7.28102480488926 
22  1  2   0.0882  -0.879199714789574    2.05315469904231    8.33721239838656 
23  1  2   0.0882   0.887133427548918    2.05374799770505    8.33965017879608 
24  1  2   0.0807  -0.885077037145434    0.0420066366677813    9.82428847266424 
25  1  2   0.0807  -0.000277184129453364    1.39406616151955    10.5521173069107 
26  1  2   0.0807   0.890046133125465    0.0426180081117773    9.82673532622537 

Bonds

1  1  2  1
2  1  3  2
3  1  4  3
4  1  5  4
5  1  6  5
6  1  7  6
7  1  8  7
8  2  9  1
9  2  10  1
10  2  11  1
11  2  12  2
12  2  13  2
13  2  14  3
14  2  15  3
15  2  16  4
16  2  17  4
17  2  18  5
18  2  19  5
19  2  20  6
20  2  21  6
21  2  22  7
22  2  23  7
23  2  24  8
24  2  25  8
25  2  26  8

Angles

1  1  1  2  3
2  1  2  3  4
3  1  3  4  5
4  1  4  5  6
5  1  5  6  7
6  1  6  7  8
7  2  2  1  9
8  2  2  1  10
9  2  2  1  11
10  2  1  2  12
11  2  1  2  13
12  2  2  3  14
13  2  2  3  15
14  2  3  4  16
15  2  3  4  17
16  2  4  5  18
17  2  4  5  19
18  2  5  6  20
19  2  5  6  21
20  2  6  7  22
21  2  6  7  23
22  2  7  8  24
23  2  7  8  25
24  2  7  8  26
25  3  20  6  21
26  3  12  2  13
27  2  6  5  19
28  3  25  8  26
29  2  5  4  16
30  3  18  5  19
31  3  16  4  17
32  2  8  7  23
33  3  22  7  23
34  3  14  3  15
35  2  3  2  12
36  2  8  7  22
37  3  10  1  11
38  2  3  2  13
39  3  9  1  10
40  3  9  1  11
41  3  24  8  25
42  2  4  3  14
43  2  7  6  21
44  2  4  3  15
45  2  7  6  20
46  2  6  5  18
47  3  24  8  26
48  2  5  4  17

Dihedrals

1  1  4  3  2  1
2  1  5  4  3  2
3  1  6  5  4  3
4  1  7  6  5  4
5  1  8  7  6  5
6  2  9  1  2  3
7  2  24  8  7  6
8  2  15  3  4  5
9  2  14  3  4  5
10  2  25  8  7  22
11  2  17  4  3  2
12  2  15  3  2  1
13  2  18  5  6  7
14  2  20  6  5  4
15  2  26  8  7  6
16  2  11  1  2  3
17  2  17  4  3  14
18  2  23  7  6  20
19  2  22  7  6  21
20  2  17  4  5  6
21  2  22  7  6  20
22  2  26  8  7  22
23  2  18  5  4  17
24  2  19  5  4  16
25  2  14  3  2  13
26  2  15  3  2  12
27  2  20  6  5  19
28  2  21  6  5  18
29  2  21  6  5  19
30  2  25  8  7  23
31  2  19  5  4  17
32  2  12  2  1  10
33  2  19  5  6  7
34  2  19  5  4  3
35  2  13  2  1  11
36  2  14  3  2  12
37  2  12  2  3  4
38  2  23  7  6  5
39  2  16  4  3  2
40  2  17  4  3  15
41  2  13  2  3  4
42  2  22  7  6  5
43  2  16  4  3  14
44  2  12  2  1  11
45  2  13  2  1  10
46  2  20  6  7  8
47  2  24  8  7  23
48  2  21  6  5  4
49  2  24  8  7  22
50  2  25  8  7  6
51  2  20  6  5  18
52  2  15  3  2  13
53  2  23  7  6  21
54  2  10  1  2  3
55  2  18  5  4  16
56  2  16  4  3  15
57  2  13  2  1  9
58  2  14  3  2  1
59  2  21  6  7  8
60  2  18  5  4  3
61  2  12  2  1  9
62  2  26  8  7  23
63  2  16  4  5  6

Impropers

1  1  1  10  9  2
2  1  1  2  11  9
3  1  2  1  3  12
4  1  2  1  3  13
5  1  3  2  4  14
6  1  3  2  4  15
7  1  4  3  5  16
8  1  4  17  3  5
9  1  5  18  4  6
10  1  5  19  4  6
11  1  6  20  5  7
12  1  6  5  21  7
13  1  7  8  22  6
14  1  7  8  23  6
15  1  8  25  24  7
16  1  8  26  24  7
