#C8: Octanoate

25 atoms
4 atom types

24 bonds
4 bond types

45 angles
7 angle types

60 dihedrals
5 dihedral types

15 impropers
2 improper types

-0.891446193900479  0.889554759049403  xlo xhi
-1.38059984961866  1.32571246611183  ylo yhi
-0.973279579476849  9.74216048915535  zlo zhi

Masses

1  12.011
2  12.011
3  15.999
4  1.008

Pair Coeffs

1  0.066  3.5
2  0.07  3.55
3  0.21  2.96
4  0.03  2.5

Bond Coeffs

1  268.0  1.529
2  317.0  1.522
3  656.0  1.25
4  340.0  1.09

Angle Coeffs

1  58.35  112.7
2  63.0  111.1
3  70.0  117.0
4  37.5  110.7
5  33.0  107.8
6  80.0  126.0
7  35.0  109.5

Dihedral Coeffs

1  1.3  -0.2  0.2  0.0
2  -2.06  -0.313  0.315  0.0
3  0.0  0.0  0.0  0.0
4  0.0  0.0  0.3  0.0
5  0.0  0.0  -0.1  0.0

Improper Coeffs

1  10.5  -1.0  2.0
2  0.0  -1.0  2.0

Atoms # full

1  1  1  -0.2079   4.20770484889749e-18   -1.14591895682862e-14    8.91722315222625 
2  1  1  -0.1585   0.00364242746698036   -0.73015104475029    7.58408168014903 
3  1  1  -0.1571   0.000491128023845662    0.248342797509016    6.4096678520746 
4  1  1  -0.1572   0.0023862212824302   -0.494768852048862    5.07335855011158 
5  1  1  -0.1612   0.00104509894305366    0.477014330970296    3.892363566256 
6  1  1  -0.1358   0.00115408069401511   -0.278100672370053    2.5614833621605 
7  1  1  -0.233   0.0016277403718304    0.678103958430807    1.3742034537221 
8  1  2   0.4283   0    0    0 
9  1  3  -0.6311  -0.00153605107156545   -1.26167171952248   -0.0101974704846657 
10  1  3  -0.6311   0.00187576029839046    0.809046577272701   -0.973279579476849 
11  1  4   0.0642   0.00363891890421829   -0.719282571740452    9.74216048915535 
12  1  4   0.0642  -0.891446193900479    0.627505883286657    9.01691166872122 
13  1  4   0.0642   0.8850128915432    0.636402387554491    9.01689278961535 
14  1  4   0.0751  -0.877221162843234   -1.38059984961866    7.52860174133237 
15  1  4   0.0751   0.889554759049403   -1.3736182585343    7.52960518856558 
16  1  4   0.0731   0.882004419884216    0.897950837508766    6.47131086661134 
17  1  4   0.0731  -0.884492077940168    0.893536130912617    6.47118264861337 
18  1  4   0.075  -0.879579454350182   -1.14427070238326    5.01507663252042 
19  1  4   0.075   0.886761056671915   -1.14097049107707    5.01581482458847 
20  1  4   0.0649   0.8841885230014    1.12492181117533    3.94810143342779 
21  1  4   0.0649  -0.883199520849905    1.1233412895727    3.94869884695093 
22  1  4   0.0791  -0.880712827743088   -0.928554734236441    2.51170438160542 
23  1  4   0.0791   0.882782228173092   -0.928927812980764    2.51216630307241 
24  1  4   0.0589   0.887073629027156    1.32366448110091    1.42439203741682 
25  1  4   0.0589  -0.882178827923137    1.32571246611183    1.4252773807087 

Bonds

1  1  2  1
2  1  3  2
3  1  4  3
4  1  5  4
5  1  6  5
6  1  7  6
7  2  8  7
8  3  9  8
9  3  10  8
10  4  11  1
11  4  12  1
12  4  13  1
13  4  14  2
14  4  15  2
15  4  16  3
16  4  17  3
17  4  18  4
18  4  19  4
19  4  20  5
20  4  21  5
21  4  22  6
22  4  23  6
23  4  24  7
24  4  25  7

Angles

1  1  1  2  3
2  1  2  3  4
3  1  3  4  5
4  1  4  5  6
5  1  5  6  7
6  2  6  7  8
7  3  7  8  9
8  3  7  8  10
9  4  2  1  11
10  4  2  1  12
11  4  2  1  13
12  4  1  2  14
13  4  1  2  15
14  4  2  3  16
15  4  2  3  17
16  4  3  4  18
17  4  3  4  19
18  4  4  5  20
19  4  4  5  21
20  4  5  6  22
21  4  5  6  23
22  4  6  7  24
23  4  6  7  25
24  5  16  3  17
25  4  3  2  14
26  4  3  2  15
27  6  9  8  10
28  5  11  1  13
29  4  7  6  22
30  5  12  1  13
31  5  14  2  15
32  4  7  6  23
33  7  8  7  25
34  5  11  1  12
35  4  6  5  20
36  5  22  6  23
37  4  5  4  19
38  4  6  5  21
39  4  4  3  16
40  4  4  3  17
41  7  8  7  24
42  5  20  5  21
43  4  5  4  18
44  5  24  7  25
45  5  18  4  19

Dihedrals

1  1  4  3  2  1
2  1  5  4  3  2
3  1  6  5  4  3
4  1  7  6  5  4
5  2  8  7  6  5
6  3  9  8  7  6
7  4  11  1  2  3
8  4  18  4  3  16
9  5  23  6  7  8
10  4  21  5  4  19
11  4  13  1  2  3
12  4  23  6  5  4
13  4  17  3  2  14
14  4  18  4  3  2
15  4  14  2  1  13
16  4  15  2  1  12
17  3  24  7  8  9
18  4  25  7  6  5
19  3  24  7  8  10
20  4  20  5  4  3
21  4  20  5  4  19
22  4  15  2  3  4
23  4  22  6  5  20
24  4  22  6  5  21
25  4  25  7  6  23
26  4  23  6  5  21
27  4  17  3  2  15
28  4  18  4  5  6
29  4  14  2  1  11
30  4  24  7  6  22
31  3  25  7  8  10
32  4  12  1  2  3
33  4  20  5  4  18
34  4  16  3  4  5
35  4  20  5  6  7
36  4  22  6  5  4
37  4  19  4  3  17
38  4  21  5  4  18
39  3  10  8  7  6
40  4  19  4  3  2
41  4  16  3  2  1
42  4  14  2  3  4
43  4  17  3  4  5
44  4  17  3  2  1
45  4  16  3  2  14
46  4  24  7  6  23
47  5  22  6  7  8
48  4  19  4  5  6
49  4  21  5  4  3
50  4  21  5  6  7
51  4  18  4  3  17
52  4  19  4  3  16
53  4  25  7  6  22
54  3  25  7  8  9
55  4  16  3  2  15
56  4  15  2  1  11
57  4  14  2  1  12
58  4  24  7  6  5
59  4  23  6  5  20
60  4  15  2  1  13

Impropers

1  1  8  9  10  7
2  2  1  2  11  12
3  2  1  2  11  13
4  2  2  1  3  14
5  2  2  1  3  15
6  2  3  2  4  16
7  2  3  17  2  4
8  2  4  18  3  5
9  2  4  19  5  3
10  2  5  4  20  6
11  2  5  4  21  6
12  2  6  5  22  7
13  2  6  7  5  23
14  2  7  8  6  24
15  2  7  25  6  8
