#C8_acid

26 atoms
6 atom types

25 bonds
6 bond types

46 angles
9 angle types

62 dihedrals
8 dihedral types

15 impropers
2 improper types

-0.892962226173824  0.894341661290714  xlo xhi
-1.36833769106944  1.78580318521151  ylo yhi
-1.05917265456996  9.67882010011382  zlo zhi

Masses

1  12.011
2  12.011
3  15.999
4  15.999
5  1.008
6  1.008

Pair Coeffs

1  0.066  3.5
2  0.07  3.55
3  0.21  2.96
4  0.17  3.12
5  0.03  2.5
6  0.0  0.0

Bond Coeffs

1  268.0  1.529
2  317.0  1.522
3  570.0  1.229
4  450.0  1.364
5  340.0  1.09
6  553.0  0.945

Angle Coeffs

1  58.35  112.7
2  63.0  111.1
3  80.0  120.4
4  70.0  108.0
5  37.5  110.7
6  35.0  113.0
7  33.0  107.8
8  80.0  121.0
9  35.0  109.5

Dihedral Coeffs

1  1.3  -0.2  0.2  0.0
2  -2.06  -0.313  0.315  0.0
3  0.0  0.0  0.0  0.0
4  0.0  0.0  0.3  0.0
5  1.5  5.5  0.0  0.0
6  0.0  0.0  -0.1  0.0
7  0.0  5.5  0.0  0.0
8  1.0  0.546  0.45  0.0

Improper Coeffs

1  10.5  -1.0  2.0
2  0.0  -1.0  2.0

Atoms # full

1  1  1  -0.2389   4.1146759905968e-18   -4.97326824223895e-15    8.86123587670479 
2  1  1  -0.1794   0.00455841360234029   -0.716480409591762    7.52070051964155 
3  1  1  -0.1777   0.000145856092403391    0.274182731898207    6.35623227983016 
4  1  1  -0.1784   0.00297346507206012   -0.455236260106425    5.01240148645236 
5  1  1  -0.1795   0.000394042539184246    0.526243192679328    3.83924141266073 
6  1  1  -0.1705   0.00146595136293556   -0.220541554388085    2.50468618223415 
7  1  1  -0.2606   0.000716588168181201    0.741346952397168    1.31819178740153 
8  1  2   0.51   0    0    0 
9  1  3  -0.4444  -4.14996870088486e-06   -1.212774069253   -0.12964309827482 
10  1  4  -0.5603   0.000910664498093215    0.842482970629906   -1.05917265456996 
11  1  5   0.0814   0.00456523340696416   -0.727751577927926    9.67882010011382 
12  1  5   0.0814  -0.892204094787578    0.62529100658127    8.96734587780202 
13  1  5   0.0814   0.884152208470644    0.636451215581833    8.96742144135877 
14  1  5   0.0896  -0.874801660362902   -1.36833769106944    7.45904939312813 
15  1  5   0.0896   0.890724254807222   -1.35918279020455    7.46015991230817 
16  1  5   0.0891   0.880831086639257    0.924249860188806    6.42451407837596 
17  1  5   0.0891  -0.885558094654216    0.917532550626119    6.42436554684849 
18  1  5   0.0934  -0.878164247172666   -1.10523213784949    4.94748169380669 
19  1  5   0.0934   0.888200672747076   -1.09969675811142    4.94826185281568 
20  1  5   0.088   0.882664293376751    1.17439073505658    3.89948356565469 
21  1  5   0.088  -0.884374494777977    1.17141740171367    3.89959952040573 
22  1  5   0.1108  -0.878471809163825   -0.87360796354975    2.4493487146029 
23  1  5   0.1108   0.882755153360824   -0.87218569236548    2.44890812309238 
24  1  5   0.1211   0.894341661290714    1.37408807720427    1.35495836141368 
25  1  5   0.1211  -0.892962226173824    1.37388378477956    1.35579317801296 
26  1  6   0.4514   0.00188879315527292    1.78580318521151   -0.810455600417964 

Bonds

1  1  2  1
2  1  3  2
3  1  4  3
4  1  5  4
5  1  6  5
6  1  7  6
7  2  8  7
8  3  9  8
9  4  10  8
10  5  11  1
11  5  12  1
12  5  13  1
13  5  14  2
14  5  15  2
15  5  16  3
16  5  17  3
17  5  18  4
18  5  19  4
19  5  20  5
20  5  21  5
21  5  22  6
22  5  23  6
23  5  24  7
24  5  25  7
25  6  26  10

Angles

1  1  1  2  3
2  1  2  3  4
3  1  3  4  5
4  1  4  5  6
5  1  5  6  7
6  2  6  7  8
7  3  7  8  9
8  4  7  8  10
9  5  2  1  11
10  5  2  1  12
11  5  2  1  13
12  5  1  2  14
13  5  1  2  15
14  5  2  3  16
15  5  2  3  17
16  5  3  4  18
17  5  3  4  19
18  5  4  5  20
19  5  4  5  21
20  5  5  6  22
21  5  5  6  23
22  5  6  7  24
23  5  6  7  25
24  6  8  10  26
25  7  16  3  17
26  5  3  2  14
27  5  3  2  15
28  8  9  8  10
29  7  11  1  13
30  5  7  6  22
31  7  12  1  13
32  7  14  2  15
33  5  7  6  23
34  9  8  7  25
35  7  11  1  12
36  5  6  5  20
37  7  22  6  23
38  5  5  4  19
39  5  6  5  21
40  5  4  3  16
41  5  4  3  17
42  9  8  7  24
43  7  20  5  21
44  5  5  4  18
45  7  24  7  25
46  7  18  4  19

Dihedrals

1  1  4  3  2  1
2  1  5  4  3  2
3  1  6  5  4  3
4  1  7  6  5  4
5  2  8  7  6  5
6  3  9  8  7  6
7  4  11  1  2  3
8  5  26  10  8  7
9  4  18  4  3  16
10  6  23  6  7  8
11  4  21  5  4  19
12  4  13  1  2  3
13  4  23  6  5  4
14  4  17  3  2  14
15  4  18  4  3  2
16  4  14  2  1  13
17  4  15  2  1  12
18  3  24  7  8  9
19  4  25  7  6  5
20  3  24  7  8  10
21  4  20  5  4  3
22  4  20  5  4  19
23  4  15  2  3  4
24  4  22  6  5  20
25  4  22  6  5  21
26  4  25  7  6  23
27  4  23  6  5  21
28  4  17  3  2  15
29  4  18  4  5  6
30  7  26  10  8  9
31  4  14  2  1  11
32  4  24  7  6  22
33  3  25  7  8  10
34  4  12  1  2  3
35  4  20  5  4  18
36  4  16  3  4  5
37  4  20  5  6  7
38  4  22  6  5  4
39  4  19  4  3  17
40  4  21  5  4  18
41  8  10  8  7  6
42  4  19  4  3  2
43  4  16  3  2  1
44  4  14  2  3  4
45  4  17  3  4  5
46  4  17  3  2  1
47  4  16  3  2  14
48  4  24  7  6  23
49  6  22  6  7  8
50  4  19  4  5  6
51  4  21  5  4  3
52  4  21  5  6  7
53  4  18  4  3  17
54  4  19  4  3  16
55  4  25  7  6  22
56  3  25  7  8  9
57  4  16  3  2  15
58  4  15  2  1  11
59  4  14  2  1  12
60  4  24  7  6  5
61  4  23  6  5  20
62  4  15  2  1  13

Impropers

1  1  8  9  10  7
2  2  1  2  11  12
3  2  1  2  11  13
4  2  2  1  3  14
5  2  2  1  3  15
6  2  3  2  4  16
7  2  3  17  2  4
8  2  4  18  3  5
9  2  4  19  5  3
10  2  5  4  20  6
11  2  5  4  21  6
12  2  6  5  22  7
13  2  6  7  5  23
14  2  7  8  6  24
15  2  7  25  6  8
