LAMMPS data file Created by LigParGen - (Written by Leela S. Dodda)

      26 atoms
      25 bonds
      48 angles
      63 dihedrals
      16 impropers
 
      26 atom types
      25 bond types
      48 angle types
      63 dihedral types
      16 improper types
 
   -7.165400    42.834600 xlo xhi
    0.111150    50.111150 ylo yhi
   -1.027080    48.972920 zlo zhi

Masses

       1     12.011  
       2     12.011  
       3     12.011  
       4     12.011  
       5     12.011  
       6     12.011  
       7     12.011  
       8     12.011  
       9      1.008  
      10      1.008  
      11      1.008  
      12      1.008  
      13      1.008  
      14      1.008  
      15      1.008  
      16      1.008  
      17      1.008  
      18      1.008  
      19      1.008  
      20      1.008  
      21      1.008  
      22      1.008  
      23      1.008  
      24      1.008  
      25      1.008  
      26      1.008  

Pair Coeffs 

       1      0.066  3.5000000 
       2      0.066  3.5000000 
       3      0.066  3.5000000 
       4      0.066  3.5000000 
       5      0.066  3.5000000 
       6      0.066  3.5000000 
       7      0.066  3.5000000 
       8      0.066  3.5000000 
       9      0.030  2.5000000 
      10      0.030  2.5000000 
      11      0.030  2.5000000 
      12      0.030  2.5000000 
      13      0.030  2.5000000 
      14      0.030  2.5000000 
      15      0.030  2.5000000 
      16      0.030  2.5000000 
      17      0.030  2.5000000 
      18      0.030  2.5000000 
      19      0.030  2.5000000 
      20      0.030  2.5000000 
      21      0.030  2.5000000 
      22      0.030  2.5000000 
      23      0.030  2.5000000 
      24      0.030  2.5000000 
      25      0.030  2.5000000 
      26      0.030  2.5000000 

Bond Coeffs 

       1   268.0000     1.5290 
       2   268.0000     1.5290 
       3   268.0000     1.5290 
       4   268.0000     1.5290 
       5   268.0000     1.5290 
       6   268.0000     1.5290 
       7   268.0000     1.5290 
       8   340.0000     1.0900 
       9   340.0000     1.0900 
      10   340.0000     1.0900 
      11   340.0000     1.0900 
      12   340.0000     1.0900 
      13   340.0000     1.0900 
      14   340.0000     1.0900 
      15   340.0000     1.0900 
      16   340.0000     1.0900 
      17   340.0000     1.0900 
      18   340.0000     1.0900 
      19   340.0000     1.0900 
      20   340.0000     1.0900 
      21   340.0000     1.0900 
      22   340.0000     1.0900 
      23   340.0000     1.0900 
      24   340.0000     1.0900 
      25   340.0000     1.0900 

Angle Coeffs 

       1     58.350    112.700
       2     58.350    112.700
       3     58.350    112.700
       4     58.350    112.700
       5     58.350    112.700
       6     58.350    112.700
       7     37.500    110.700
       8     37.500    110.700
       9     37.500    110.700
      10     37.500    110.700
      11     37.500    110.700
      12     37.500    110.700
      13     37.500    110.700
      14     37.500    110.700
      15     37.500    110.700
      16     37.500    110.700
      17     37.500    110.700
      18     37.500    110.700
      19     37.500    110.700
      20     37.500    110.700
      21     37.500    110.700
      22     37.500    110.700
      23     37.500    110.700
      24     37.500    110.700
      25     33.000    107.800
      26     33.000    107.800
      27     37.500    110.700
      28     33.000    107.800
      29     37.500    110.700
      30     33.000    107.800
      31     33.000    107.800
      32     37.500    110.700
      33     33.000    107.800
      34     33.000    107.800
      35     37.500    110.700
      36     37.500    110.700
      37     33.000    107.800
      38     37.500    110.700
      39     33.000    107.800
      40     33.000    107.800
      41     33.000    107.800
      42     37.500    110.700
      43     37.500    110.700
      44     37.500    110.700
      45     37.500    110.700
      46     37.500    110.700
      47     33.000    107.800
      48     37.500    110.700

Dihedral Coeffs  

       1      1.300     -0.200      0.200      0.000 
       2      1.300     -0.200      0.200      0.000 
       3      1.300     -0.200      0.200      0.000 
       4      1.300     -0.200      0.200      0.000 
       5      1.300     -0.200      0.200      0.000 
       6      0.000      0.000      0.300      0.000 
       7      0.000      0.000      0.300      0.000 
       8      0.000      0.000      0.300      0.000 
       9      0.000      0.000      0.300      0.000 
      10      0.000      0.000      0.300      0.000 
      11      0.000      0.000      0.300      0.000 
      12      0.000      0.000      0.300      0.000 
      13      0.000      0.000      0.300      0.000 
      14      0.000      0.000      0.300      0.000 
      15      0.000      0.000      0.300      0.000 
      16      0.000      0.000      0.300      0.000 
      17      0.000      0.000      0.300      0.000 
      18      0.000      0.000      0.300      0.000 
      19      0.000      0.000      0.300      0.000 
      20      0.000      0.000      0.300      0.000 
      21      0.000      0.000      0.300      0.000 
      22      0.000      0.000      0.300      0.000 
      23      0.000      0.000      0.300      0.000 
      24      0.000      0.000      0.300      0.000 
      25      0.000      0.000      0.300      0.000 
      26      0.000      0.000      0.300      0.000 
      27      0.000      0.000      0.300      0.000 
      28      0.000      0.000      0.300      0.000 
      29      0.000      0.000      0.300      0.000 
      30      0.000      0.000      0.300      0.000 
      31      0.000      0.000      0.300      0.000 
      32      0.000      0.000      0.300      0.000 
      33      0.000      0.000      0.300      0.000 
      34      0.000      0.000      0.300      0.000 
      35      0.000      0.000      0.300      0.000 
      36      0.000      0.000      0.300      0.000 
      37      0.000      0.000      0.300      0.000 
      38      0.000      0.000      0.300      0.000 
      39      0.000      0.000      0.300      0.000 
      40      0.000      0.000      0.300      0.000 
      41      0.000      0.000      0.300      0.000 
      42      0.000      0.000      0.300      0.000 
      43      0.000      0.000      0.300      0.000 
      44      0.000      0.000      0.300      0.000 
      45      0.000      0.000      0.300      0.000 
      46      0.000      0.000      0.300      0.000 
      47      0.000      0.000      0.300      0.000 
      48      0.000      0.000      0.300      0.000 
      49      0.000      0.000      0.300      0.000 
      50      0.000      0.000      0.300      0.000 
      51      0.000      0.000      0.300      0.000 
      52      0.000      0.000      0.300      0.000 
      53      0.000      0.000      0.300      0.000 
      54      0.000      0.000      0.300      0.000 
      55      0.000      0.000      0.300      0.000 
      56      0.000      0.000      0.300      0.000 
      57      0.000      0.000      0.300      0.000 
      58      0.000      0.000      0.300      0.000 
      59      0.000      0.000      0.300      0.000 
      60      0.000      0.000      0.300      0.000 
      61      0.000      0.000      0.300      0.000 
      62      0.000      0.000      0.300      0.000 
      63      0.000      0.000      0.300      0.000 

Improper Coeffs 

       1      0.000      -1       2 
       2      0.000      -1       2 
       3      0.000      -1       2 
       4      0.000      -1       2 
       5      0.000      -1       2 
       6      0.000      -1       2 
       7      0.000      -1       2 
       8      0.000      -1       2 
       9      0.000      -1       2 
      10      0.000      -1       2 
      11      0.000      -1       2 
      12      0.000      -1       2 
      13      0.000      -1       2 
      14      0.000      -1       2 
      15      0.000      -1       2 
      16      0.000      -1       2 

Atoms 

     1      1      1 -0.23880000    1.000  1.00000  0.00000
     2      1      2 -0.17940000   -0.520  1.00000  0.00000
     3      1      3 -0.17820000   -1.079  1.00000  1.42278
     4      1      4 -0.17900000   -2.608  0.99820  1.41950
     5      1      5 -0.17910000   -3.165  1.00000  2.84395
     6      1      6 -0.17820000   -4.695  1.00000  2.84066
     7      1      7 -0.17920000   -5.253  1.00361  4.26347
     8      1      8 -0.23870000   -6.773  1.00540  4.26346
     9      1      9 0.08070000    1.378  1.00130 -1.02708
    10      1     10 0.08070000    1.391  0.11115  0.50525
    11      1     11 0.08070000    1.391  1.88753  0.50747
    12      1     12 0.08820000   -0.879  0.11657 -0.54104
    13      1     13 0.08820000   -0.879  1.88337 -0.54101
    14      1     14 0.08930000   -0.713  1.88348  1.96013
    15      1     15 0.08930000   -0.711  0.11781  1.96098
    16      1     16 0.08910000   -2.972  0.11343  0.88346
    17      1     17 0.08910000   -2.975  1.88032  0.88037
    18      1     18 0.08910000   -2.799  1.88407  3.37979
    19      1     19 0.08910000   -2.799  0.11728  3.38203
    20      1     20 0.08930000   -5.060  0.11579  2.30426
    21      1     21 0.08930000   -5.060  1.88148  2.29980
    22      1     22 0.08820000   -4.892  1.88746  4.80233
    23      1     23 0.08820000   -4.894  0.12113  4.80599
    24      1     24 0.08070000   -7.163  1.89236  3.75415
    25      1     25 0.08070000   -7.151  1.00927  5.29060
    26      1     26 0.08070000   -7.165  0.11724  3.75784

Bonds 

     1      1      2      1
     2      2      3      2
     3      3      4      3
     4      4      5      4
     5      5      6      5
     6      6      7      6
     7      7      8      7
     8      8      9      1
     9      9     10      1
    10     10     11      1
    11     11     12      2
    12     12     13      2
    13     13     14      3
    14     14     15      3
    15     15     16      4
    16     16     17      4
    17     17     18      5
    18     18     19      5
    19     19     20      6
    20     20     21      6
    21     21     22      7
    22     22     23      7
    23     23     24      8
    24     24     25      8
    25     25     26      8

Angles 

     1      1      1      2      3
     2      2      2      3      4
     3      3      3      4      5
     4      4      4      5      6
     5      5      5      6      7
     6      6      6      7      8
     7      7      2      1      9
     8      8      2      1     10
     9      9      2      1     11
    10     10      1      2     12
    11     11      1      2     13
    12     12      2      3     14
    13     13      2      3     15
    14     14      3      4     16
    15     15      3      4     17
    16     16      4      5     18
    17     17      4      5     19
    18     18      5      6     20
    19     19      5      6     21
    20     20      6      7     22
    21     21      6      7     23
    22     22      7      8     24
    23     23      7      8     25
    24     24      7      8     26
    25     25     20      6     21
    26     26     12      2     13
    27     27      6      5     19
    28     28     25      8     26
    29     29      5      4     16
    30     30     18      5     19
    31     31     16      4     17
    32     32      8      7     23
    33     33     22      7     23
    34     34     14      3     15
    35     35      3      2     12
    36     36      8      7     22
    37     37     10      1     11
    38     38      3      2     13
    39     39      9      1     10
    40     40      9      1     11
    41     41     24      8     25
    42     42      4      3     14
    43     43      7      6     21
    44     44      4      3     15
    45     45      7      6     20
    46     46      6      5     18
    47     47     24      8     26
    48     48      5      4     17

Dihedrals

     1      1      4      3      2      1 
     2      2      5      4      3      2 
     3      3      6      5      4      3 
     4      4      7      6      5      4 
     5      5      8      7      6      5 
     6      6      9      1      2      3 
     7      7     24      8      7      6 
     8      8     15      3      4      5 
     9      9     14      3      4      5 
    10     10     25      8      7     22 
    11     11     17      4      3      2 
    12     12     15      3      2      1 
    13     13     18      5      6      7 
    14     14     20      6      5      4 
    15     15     26      8      7      6 
    16     16     11      1      2      3 
    17     17     17      4      3     14 
    18     18     23      7      6     20 
    19     19     22      7      6     21 
    20     20     17      4      5      6 
    21     21     22      7      6     20 
    22     22     26      8      7     22 
    23     23     18      5      4     17 
    24     24     19      5      4     16 
    25     25     14      3      2     13 
    26     26     15      3      2     12 
    27     27     20      6      5     19 
    28     28     21      6      5     18 
    29     29     21      6      5     19 
    30     30     25      8      7     23 
    31     31     19      5      4     17 
    32     32     12      2      1     10 
    33     33     19      5      6      7 
    34     34     19      5      4      3 
    35     35     13      2      1     11 
    36     36     14      3      2     12 
    37     37     12      2      3      4 
    38     38     23      7      6      5 
    39     39     16      4      3      2 
    40     40     17      4      3     15 
    41     41     13      2      3      4 
    42     42     22      7      6      5 
    43     43     16      4      3     14 
    44     44     12      2      1     11 
    45     45     13      2      1     10 
    46     46     20      6      7      8 
    47     47     24      8      7     23 
    48     48     21      6      5      4 
    49     49     24      8      7     22 
    50     50     25      8      7      6 
    51     51     20      6      5     18 
    52     52     15      3      2     13 
    53     53     23      7      6     21 
    54     54     10      1      2      3 
    55     55     18      5      4     16 
    56     56     16      4      3     15 
    57     57     13      2      1      9 
    58     58     14      3      2      1 
    59     59     21      6      7      8 
    60     60     18      5      4      3 
    61     61     12      2      1      9 
    62     62     26      8      7     23 
    63     63     16      4      5      6 

Impropers

     1      1      1     10      9      2 
     2      2      1      2     11      9 
     3      3      2      1      3     12 
     4      4      2      1      3     13 
     5      5      3      2      4     14 
     6      6      3      2      4     15 
     7      7      4      3      5     16 
     8      8      4     17      3      5 
     9      9      5     18      4      6 
    10     10      5     19      4      6 
    11     11      6     20      5      7 
    12     12      6      5     21      7 
    13     13      7      8     22      6 
    14     14      7      8     23      6 
    15     15      8     25     24      7 
    16     16      8     26     24      7 

