#C2: EthaneThiolate

8 atoms
3 atom types

7 bonds
3 bond types

12 angles
4 angle types

9 dihedrals
2 dihedral types

4 impropers
1 improper types

-0.888052969279718  0.889316998627272  xlo xhi
-1.03155998145691  1.7247799998265  ylo yhi
-0.607999999999999  1.933  zlo zhi

Masses

1  12.011
2  32.06
3  1.008

Pair Coeffs

1  0.066  3.5
2  0.355  3.55
3  0.03  2.5

Bond Coeffs

1  268.0  1.529
2  340.0  1.77
3  340.0  1.09

Angle Coeffs

1  50.0  108.6
2  37.5  110.7
3  33.0  107.8
4  35.0  109.5

Dihedral Coeffs

1  0.0  0.0  0.452  0.0
2  0.0  0.0  0.3  0.0

Improper Coeffs

1  0.0  -1.0  2.0

Atoms # full

1  1  1  -0.1894  -3.59861571961205e-21   -1.05796782197474e-15    1.524 
2  1  1  -0.089   0    0    0 
3  1  2  -0.9033   2.44644453898318e-05    1.7247799998265   -0.607999999999999 
4  1  3   0.0417  -0.00131463174611304   -1.03155998145691    1.894 
5  1  3   0.0417  -0.888052969279718    0.495682596278581    1.933 
6  1  3   0.0417   0.889316998627272    0.4934073858918    1.933 
7  1  3   0.0283  -0.874858008820056   -0.564627590986667   -0.344 
8  1  3   0.0283   0.874821991145777   -0.564642408616052   -0.344 

Bonds

1  1  2  1
2  2  3  2
3  3  4  1
4  3  5  1
5  3  6  1
6  3  7  2
7  3  8  2

Angles

1  1  1  2  3
2  2  2  1  4
3  2  2  1  5
4  2  2  1  6
5  2  1  2  7
6  2  1  2  8
7  3  4  1  5
8  3  5  1  6
9  4  3  2  7
10  4  3  2  8
11  3  4  1  6
12  3  7  2  8

Dihedrals

1  1  4  1  2  3
2  1  5  1  2  3
3  2  8  2  1  6
4  2  7  2  1  5
5  2  8  2  1  4
6  2  8  2  1  5
7  1  6  1  2  3
8  2  7  2  1  6
9  2  7  2  1  4

Impropers

1  1  1  2  4  5
2  1  1  2  4  6
3  1  2  1  3  7
4  1  2  1  3  8
