#C10: DecaneThiolate

32 atoms
3 atom types

31 bonds
3 bond types

60 angles
5 angle types

81 dihedrals
4 dihedral types

20 impropers
1 improper types

-0.891340443333915  0.892466223839951  xlo xhi
-1.41529955585009  1.42168324125748  ylo yhi
-1.39340197159628  12.2307209901897  zlo zhi

Masses

1  12.011
2  32.06
3  1.008

Pair Coeffs

1  0.066  3.5
2  0.355  3.55
3  0.03  2.5

Bond Coeffs

1  268.0  1.529
2  340.0  1.77
3  340.0  1.09

Angle Coeffs

1  58.35  112.7
2  50.0  108.6
3  37.5  110.7
4  33.0  107.8
5  35.0  109.5

Dihedral Coeffs

1  1.3  -0.2  0.2  0.0
2  1.262  -0.198  0.465  0.0
3  0.0  0.0  0.3  0.0
4  0.0  0.0  0.452  0.0

Improper Coeffs

1  0.0  -1.0  2.0

Atoms # full

1  1  1  -0.2086  -3.18350609963935e-17    2.8922473994248e-14    11.3870968435067 
2  1  1  -0.1577   0.00497256217237353   -0.763789418622607    10.0729427438572 
3  1  1  -0.1568   0.003248750295995    0.186738898903495    8.87623982811178 
4  1  1  -0.1572   0.00645077049024939   -0.581579793671005    7.55430171545019 
5  1  1  -0.1576   0.00650881824238926    0.374918550303025    6.36107557414025 
6  1  1  -0.1578   0.00790450833610565   -0.387735342591013    5.03583823184917 
7  1  1  -0.1564   0.00616495064255771    0.572339735595023    3.84515303269488 
8  1  1  -0.1684   0.00575654473041887   -0.188894448598629    2.51908372597685 
9  1  1  -0.1507   0.00219751547323194    0.772260997390782    1.32545045480197 
10  1  1  -0.086   0    0    0 
11  1  2  -0.8981  -0.00640115670140831    1.18942873668181   -1.39340197159628 
12  1  3   0.0674   0.0026184482460755   -0.697259084173252    12.2307209901897 
13  1  3   0.0674  -0.891340443333915    0.629898503299962    11.4698709585295 
14  1  3   0.0674   0.885048830699622    0.638625382522237    11.4715204668333 
15  1  3   0.0757  -0.875897469392025   -1.41529955585009    10.0330359840092 
16  1  3   0.0757   0.890510293335087   -1.40889413302193    10.034840322058 
17  1  3   0.0771   0.884245946992378    0.838274144571555    8.92422893901598 
18  1  3   0.0771  -0.88145765956179    0.833264421542301    8.92277271898661 
19  1  3   0.0756  -0.875880600935534   -1.23166760833785    7.50546630596502 
20  1  3   0.0756   0.890998377693726   -1.22852091900587    7.5080097729433 
21  1  3   0.0761   0.889514644059766    1.02346132419323    6.41081151695196 
22  1  3   0.0761  -0.876820489726053    1.02339015864124    6.41110915649491 
23  1  3   0.073  -0.874405784489849   -1.03756475017141    4.98569607775609 
24  1  3   0.073   0.892466223839951   -1.03420403709149    4.98580185212655 
25  1  3   0.0744   0.889145429776921    1.22147242460223    3.89685929469402 
26  1  3   0.0744  -0.877755164383177    1.21982557142518    3.89807058793141 
27  1  3   0.0641  -0.876496297446326   -0.83847186139817    2.46995196688243 
28  1  3   0.0641   0.890382136504529   -0.835442808273353    2.46678061440371 
29  1  3   0.0785   0.885537105156931    1.42168324125748    1.38971279889692 
30  1  3   0.0785  -0.882049809208547    1.42033088240169    1.39422024711707 
31  1  3   0.0321  -0.874148458481691   -0.662479216812236   -0.0207830586278818 
32  1  3   0.0321   0.87670979436706   -0.658768517514743   -0.0255678409783616 

Bonds

1  1  2  1
2  1  3  2
3  1  4  3
4  1  5  4
5  1  6  5
6  1  7  6
7  1  8  7
8  1  9  8
9  1  10  9
10  2  11  10
11  3  12  1
12  3  13  1
13  3  14  1
14  3  15  2
15  3  16  2
16  3  17  3
17  3  18  3
18  3  19  4
19  3  20  4
20  3  21  5
21  3  22  5
22  3  23  6
23  3  24  6
24  3  25  7
25  3  26  7
26  3  27  8
27  3  28  8
28  3  29  9
29  3  30  9
30  3  31  10
31  3  32  10

Angles

1  1  1  2  3
2  1  2  3  4
3  1  3  4  5
4  1  4  5  6
5  1  5  6  7
6  1  6  7  8
7  1  7  8  9
8  1  8  9  10
9  2  9  10  11
10  3  2  1  12
11  3  2  1  13
12  3  2  1  14
13  3  1  2  15
14  3  1  2  16
15  3  2  3  17
16  3  2  3  18
17  3  3  4  19
18  3  3  4  20
19  3  4  5  21
20  3  4  5  22
21  3  5  6  23
22  3  5  6  24
23  3  6  7  25
24  3  6  7  26
25  3  7  8  27
26  3  7  8  28
27  3  8  9  29
28  3  8  9  30
29  3  9  10  31
30  3  9  10  32
31  3  9  8  28
32  3  10  9  30
33  4  29  9  30
34  3  10  9  29
35  4  19  4  20
36  3  3  2  15
37  4  13  1  14
38  4  23  6  24
39  3  6  5  22
40  4  21  5  22
41  3  7  6  23
42  5  11  10  32
43  3  8  7  26
44  4  12  1  14
45  3  3  2  16
46  4  27  8  28
47  3  4  3  18
48  3  7  6  24
49  3  8  7  25
50  4  12  1  13
51  3  5  4  19
52  4  25  7  26
53  5  11  10  31
54  3  6  5  21
55  3  5  4  20
56  4  31  10  32
57  4  15  2  16
58  3  4  3  17
59  4  17  3  18
60  3  9  8  27

Dihedrals

1  1  4  3  2  1
2  1  5  4  3  2
3  1  6  5  4  3
4  1  7  6  5  4
5  1  8  7  6  5
6  1  9  8  7  6
7  1  10  9  8  7
8  2  11  10  9  8
9  3  12  1  2  3
10  3  16  2  3  4
11  3  23  6  7  8
12  3  21  5  4  19
13  3  22  5  4  3
14  3  18  3  2  1
15  3  28  8  9  10
16  3  31  10  9  29
17  3  15  2  1  12
18  3  17  3  2  16
19  3  18  3  2  15
20  3  25  7  6  5
21  3  31  10  9  30
22  3  22  5  4  20
23  3  23  6  5  21
24  3  20  4  5  6
25  3  15  2  3  4
26  3  24  6  5  21
27  3  18  3  4  5
28  3  21  5  4  20
29  3  22  5  4  19
30  3  24  6  5  22
31  3  30  9  8  28
32  3  26  7  8  9
33  3  25  7  6  24
34  3  32  10  9  8
35  3  24  6  5  4
36  3  20  4  3  17
37  3  31  10  9  8
38  3  15  2  1  14
39  3  20  4  3  18
40  3  13  1  2  3
41  3  19  4  3  17
42  3  27  8  7  25
43  3  19  4  3  18
44  4  30  9  10  11
45  3  19  4  3  2
46  3  22  5  6  7
47  3  23  6  5  4
48  3  17  3  2  15
49  4  29  9  10  11
50  3  17  3  4  5
51  3  20  4  3  2
52  3  17  3  2  1
53  3  28  8  7  25
54  3  27  8  7  6
55  3  26  7  6  5
56  3  30  9  8  27
57  3  16  2  1  13
58  3  26  7  6  24
59  3  19  4  5  6
60  3  14  1  2  3
61  3  21  5  6  7
62  3  21  5  4  3
63  3  30  9  8  7
64  3  23  6  5  22
65  3  27  8  9  10
66  3  32  10  9  29
67  3  29  9  8  7
68  3  18  3  2  16
69  3  29  9  8  27
70  3  28  8  7  26
71  3  29  9  8  28
72  3  28  8  7  6
73  3  25  7  8  9
74  3  16  2  1  14
75  3  26  7  6  23
76  3  32  10  9  30
77  3  16  2  1  12
78  3  25  7  6  23
79  3  27  8  7  26
80  3  15  2  1  13
81  3  24  6  7  8

Impropers

1  1  1  2  12  13
2  1  1  2  12  14
3  1  2  1  3  15
4  1  2  1  3  16
5  1  3  17  2  4
6  1  3  18  4  2
7  1  4  19  5  3
8  1  4  3  20  5
9  1  5  4  21  6
10  1  5  4  22  6
11  1  6  7  5  23
12  1  6  5  7  24
13  1  7  25  6  8
14  1  7  26  6  8
15  1  8  9  27  7
16  1  8  9  28  7
17  1  9  10  29  8
18  1  9  10  30  8
19  1  10  9  11  31
20  1  10  9  11  32
