#C24

74 atoms
2 atom types

73 bonds
2 bond types

144 angles
3 angle types

207 dihedrals
2 dihedral types

48 impropers
1 improper types

-0.893411270089649  0.902495802085577  xlo xhi
-2.11479171085188  0.847947831377421  ylo yhi
0.0161771125271306  30.57798737661  zlo zhi

Masses

1  12.011
2  1.008

Pair Coeffs

1  0.066  3.5
2  0.03  2.5

Bond Coeffs

1  268.0  1.529
2  340.0  1.09

Angle Coeffs

1  58.35  112.7
2  37.5  110.7
3  33.0  107.8

Dihedral Coeffs

1  1.3  -0.2  0.2  0.0
2  0.0  0.0  0.3  0.0

Improper Coeffs

1  0.0  -1.0  2.0

Atoms # full

1  1  1  -0.239  -0.00224223135688972   -0.6336682439556    0.892805392569269 
2  1  1  -0.1796   0.0055440602316038    0.194142611164314    2.16758716283779 
3  1  1  -0.1789   0.000875617504838106   -0.701758027730542    3.40280456284083 
4  1  1  -0.1795   0.00687896149079384    0.127413438127556    4.68267548198375 
5  1  1  -0.1798   0.00397221017059562   -0.775070215298297    5.91023335438565 
6  1  1  -0.1797   0.0081670462455434    0.0527471858447717    7.19099461497056 
7  1  1  -0.1798   0.0070328396312071   -0.855406889936033    8.41387736217818 
8  1  1  -0.18   0.00942235617307295   -0.0292104517014077    9.69212517878462 
9  1  1  -0.1801   0.010078858045272   -0.936982718329052    10.9135566903509 
10  1  1  -0.1803   0.0106654312114996   -0.108055941270486    12.1900425066478 
11  1  1  -0.1802   0.0131297539278408   -1.01590780395348    13.4103223028571 
12  1  1  -0.1803   0.0119148271217748   -0.185617770938597    14.6859338588681 
13  1  1  -0.1804   0.0161802037704139   -1.0933064618763    15.9060966947658 
14  1  1  -0.1802   0.0131552206643798   -0.263020183849235    17.1817217448872 
15  1  1  -0.1802   0.0156249808978236   -1.17027711470629    18.4028075352378 
16  1  1  -0.1801   0.0144063749348462   -0.341898776963719    19.6784681590553 
17  1  1  -0.18   0.0150766867781238   -1.24933616736541    20.9008744871161 
18  1  1  -0.18   0.0120546954643941   -0.421767281933186    22.1782641245928 
19  1  1  -0.1797   0.0109044092740608   -1.32824485721948    23.4024430151332 
20  1  1  -0.1798   0.00968266742596528   -0.499591234713288    24.6815019780252 
21  1  1  -0.1796   0.00673044085513359   -1.40189943986512    25.9113309184368 
22  1  1  -0.1787   0.00371093068446348   -0.569962479560094    27.1894611068905 
23  1  1  -0.1791   0.00254951576149679   -1.46370035424791    28.4256373640092 
24  1  1  -0.2391  -0.00224223135688954   -0.633668243955649    29.6978611726385 
25  1  2   0.0807  -8.48881627178379e-05    0.0221977061444969    0.0161771125271306 
26  1  2   0.0807  -0.893411270089649   -1.26707892454315    0.844548614581642 
27  1  2   0.0807   0.882011634025024   -1.27682154428029    0.841223406967695 
28  1  2   0.0884  -0.874491042047918    0.847947831377421    2.17884018811831 
29  1  2   0.0884   0.891532950133907    0.837082369491297    2.17510917268406 
30  1  2   0.0895   0.880942156748969   -1.3582102330583    3.38492370371206 
31  1  2   0.0895  -0.885569443001865   -1.34801121514331    3.38670574729121 
32  1  2   0.0895  -0.873331186968349    0.782741820658328    4.70367172210277 
33  1  2   0.0895   0.893351200262282    0.773992013954722    4.70213991541449 
34  1  2   0.0897   0.884284543563305   -1.42899971723341    5.89071281454733 
35  1  2   0.0897  -0.882401780627912   -1.42087890329551    5.89265309718475 
36  1  2   0.09  -0.873515245934081    0.704815749559582    7.21292432932775 
37  1  2   0.09   0.893969932952484    0.699431219388617    7.21039465520539 
38  1  2   0.09   0.889254382386522   -1.50759674950251    8.39202312055107 
39  1  2   0.09  -0.877864831324013   -1.5039080102888    8.39326704099593 
40  1  2   0.09  -0.873258990633137    0.621414355793183    9.71499853387306 
41  1  2   0.09   0.893251420722315    0.619516415290769    9.7125954328262 
42  1  2   0.0901   0.893084194720455   -1.58751860442103    10.8930083349504 
43  1  2   0.0901  -0.874335650155057   -1.58657761706029    10.8936536898958 
44  1  2   0.0901  -0.873494656036689    0.540400402776714    12.2107559559553 
45  1  2   0.0901   0.893256865193263    0.542650760157779    12.2092346659417 
46  1  2   0.0902   0.897823186459711   -1.66383121945251    13.389259525665 
47  1  2   0.0902  -0.869832300015302   -1.66671248305494    13.3911960314967 
48  1  2   0.0901  -0.873626067552259    0.461389678069911    14.7064042567005 
49  1  2   0.0901   0.893296687495227    0.466758246057522    14.7040493950985 
50  1  2   0.0901   0.902495802085577   -1.73956465767507    15.8851350191138 
51  1  2   0.0901  -0.864891206189545   -1.74638770834506    15.8848601375597 
52  1  2   0.0902  -0.872621346069311    0.383629326198509    17.2000412967509 
53  1  2   0.0902   0.894954602578642    0.38895864356025    17.200092655735 
54  1  2   0.0901   0.900817739309029   -1.81803588031696    18.3804424277956 
55  1  2   0.0901  -0.866107299026726   -1.82217155056029    18.3819966909098 
56  1  2   0.0901  -0.870133785342752    0.306820798511711    19.6978206330847 
57  1  2   0.0901   0.896765772544043    0.309807137824418    19.6982052328225 
58  1  2   0.09   0.900081370798956   -1.89706053480776    20.8796805520735 
59  1  2   0.09  -0.866745131973673   -1.90193295575226    20.8769431967112 
60  1  2   0.0899  -0.872396841070027    0.227279751786809    22.1950186923633 
61  1  2   0.0899   0.894894652923002    0.228702797441839    22.1976084222624 
62  1  2   0.0899   0.894484402477196   -1.97803843820204    23.3814091157086 
63  1  2   0.0899  -0.872462865818317   -1.97773725318712    23.3800823336571 
64  1  2   0.0896  -0.872735642762337    0.151563072723694    24.6968757170202 
65  1  2   0.0896   0.893510620603256    0.149505670685958    24.6993472234302 
66  1  2   0.0895   0.889872082193483   -2.05197602891888    25.8928681965778 
67  1  2   0.0895  -0.876413695246732   -2.05221485929474    25.888310963594 
68  1  2   0.0896  -0.879969406515028    0.0800953350229043    27.201977505996 
69  1  2   0.0896   0.886017875188524    0.0821730539029786    27.2053424347551 
70  1  2   0.0885   0.887058362106075   -2.1108484842312    28.4183805949407 
71  1  2   0.0885  -0.879454032831059   -2.11479171085188    28.4138455649204 
72  1  2   0.0806   0.883668792335675    0.00774433901769722    29.7493003610405 
73  1  2   0.0806  -0.00175736536735679   -1.28576480964793    30.57798737661 
74  1  2   0.0806  -0.891187765931852    0.00343389617012213    29.7438623966048 

Bonds

1  1  2  1
2  1  3  2
3  1  4  3
4  1  5  4
5  1  6  5
6  1  7  6
7  1  8  7
8  1  9  8
9  1  10  9
10  1  11  10
11  1  12  11
12  1  13  12
13  1  14  13
14  1  15  14
15  1  16  15
16  1  17  16
17  1  18  17
18  1  19  18
19  1  20  19
20  1  21  20
21  1  22  21
22  1  23  22
23  1  24  23
24  2  25  1
25  2  26  1
26  2  27  1
27  2  28  2
28  2  29  2
29  2  30  3
30  2  31  3
31  2  32  4
32  2  33  4
33  2  34  5
34  2  35  5
35  2  36  6
36  2  37  6
37  2  38  7
38  2  39  7
39  2  40  8
40  2  41  8
41  2  42  9
42  2  43  9
43  2  44  10
44  2  45  10
45  2  46  11
46  2  47  11
47  2  48  12
48  2  49  12
49  2  50  13
50  2  51  13
51  2  52  14
52  2  53  14
53  2  54  15
54  2  55  15
55  2  56  16
56  2  57  16
57  2  58  17
58  2  59  17
59  2  60  18
60  2  61  18
61  2  62  19
62  2  63  19
63  2  64  20
64  2  65  20
65  2  66  21
66  2  67  21
67  2  68  22
68  2  69  22
69  2  70  23
70  2  71  23
71  2  72  24
72  2  73  24
73  2  74  24

Angles

1  1  1  2  3
2  1  2  3  4
3  1  3  4  5
4  1  4  5  6
5  1  5  6  7
6  1  6  7  8
7  1  7  8  9
8  1  8  9  10
9  1  9  10  11
10  1  10  11  12
11  1  11  12  13
12  1  12  13  14
13  1  13  14  15
14  1  14  15  16
15  1  15  16  17
16  1  16  17  18
17  1  17  18  19
18  1  18  19  20
19  1  19  20  21
20  1  20  21  22
21  1  21  22  23
22  1  22  23  24
23  2  2  1  25
24  2  2  1  26
25  2  2  1  27
26  2  1  2  28
27  2  1  2  29
28  2  2  3  30
29  2  2  3  31
30  2  3  4  32
31  2  3  4  33
32  2  4  5  34
33  2  4  5  35
34  2  5  6  36
35  2  5  6  37
36  2  6  7  38
37  2  6  7  39
38  2  7  8  40
39  2  7  8  41
40  2  8  9  42
41  2  8  9  43
42  2  9  10  44
43  2  9  10  45
44  2  10  11  46
45  2  10  11  47
46  2  11  12  48
47  2  11  12  49
48  2  12  13  50
49  2  12  13  51
50  2  13  14  52
51  2  13  14  53
52  2  14  15  54
53  2  14  15  55
54  2  15  16  56
55  2  15  16  57
56  2  16  17  58
57  2  16  17  59
58  2  17  18  60
59  2  17  18  61
60  2  18  19  62
61  2  18  19  63
62  2  19  20  64
63  2  19  20  65
64  2  20  21  66
65  2  20  21  67
66  2  21  22  68
67  2  21  22  69
68  2  22  23  70
69  2  22  23  71
70  2  23  24  72
71  2  23  24  73
72  2  23  24  74
73  2  19  18  61
74  2  7  6  36
75  3  73  24  74
76  2  6  5  34
77  3  28  2  29
78  2  20  19  62
79  2  4  3  31
80  2  9  8  40
81  2  23  22  68
82  2  10  9  42
83  2  7  6  37
84  3  50  13  51
85  3  52  14  53
86  3  64  20  65
87  3  72  24  74
88  2  23  22  69
89  2  9  8  41
90  3  36  6  37
91  3  72  24  73
92  2  16  15  55
93  2  22  21  66
94  3  66  21  67
95  2  13  12  48
96  2  8  7  39
97  3  70  23  71
98  3  68  22  69
99  2  10  9  43
100  2  12  11  47
101  3  58  17  59
102  2  24  23  71
103  2  5  4  32
104  2  3  2  29
105  2  22  21  67
106  2  5  4  33
107  2  21  20  65
108  3  46  11  47
109  3  34  5  35
110  2  11  10  45
111  2  14  13  50
112  2  24  23  70
113  2  11  10  44
114  2  13  12  49
115  2  17  16  56
116  3  25  1  26
117  2  17  16  57
118  3  42  9  43
119  2  18  17  59
120  2  6  5  35
121  2  21  20  64
122  3  25  1  27
123  2  14  13  51
124  3  30  3  31
125  2  4  3  30
126  3  26  1  27
127  2  16  15  54
128  3  62  19  63
129  3  40  8  41
130  3  44  10  45
131  3  38  7  39
132  2  8  7  38
133  3  54  15  55
134  2  12  11  46
135  2  3  2  28
136  3  60  18  61
137  2  18  17  58
138  2  19  18  60
139  2  15  14  52
140  2  20  19  63
141  3  56  16  57
142  2  15  14  53
143  3  48  12  49
144  3  32  4  33

Dihedrals

1  1  4  3  2  1
2  1  5  4  3  2
3  1  6  5  4  3
4  1  7  6  5  4
5  1  8  7  6  5
6  1  9  8  7  6
7  1  10  9  8  7
8  1  11  10  9  8
9  1  12  11  10  9
10  1  13  12  11  10
11  1  14  13  12  11
12  1  15  14  13  12
13  1  16  15  14  13
14  1  17  16  15  14
15  1  18  17  16  15
16  1  19  18  17  16
17  1  20  19  18  17
18  1  21  20  19  18
19  1  22  21  20  19
20  1  23  22  21  20
21  1  24  23  22  21
22  2  25  1  2  3
23  2  72  24  23  22
24  2  54  15  14  52
25  2  63  19  18  17
26  2  60  18  19  20
27  2  52  14  13  12
28  2  35  5  4  32
29  2  34  5  4  33
30  2  56  16  15  54
31  2  68  22  21  20
32  2  59  17  16  15
33  2  58  17  16  15
34  2  28  2  1  27
35  2  49  12  13  14
36  2  50  13  12  49
37  2  51  13  12  48
38  2  43  9  10  11
39  2  57  16  15  14
40  2  54  15  16  17
41  2  32  4  3  2
42  2  65  20  19  62
43  2  33  4  3  30
44  2  32  4  3  31
45  2  52  14  13  50
46  2  31  3  2  29
47  2  66  21  20  65
48  2  38  7  6  36
49  2  55  15  16  17
50  2  45  10  9  42
51  2  42  9  8  7
52  2  57  16  15  54
53  2  51  13  14  15
54  2  58  17  16  56
55  2  26  1  2  3
56  2  47  11  12  13
57  2  32  4  5  6
58  2  63  19  20  21
59  2  68  22  21  66
60  2  35  5  4  3
61  2  42  9  8  40
62  2  62  19  18  61
63  2  33  4  3  31
64  2  39  7  8  9
65  2  61  18  19  20
66  2  47  11  10  44
67  2  39  7  6  36
68  2  62  19  18  17
69  2  63  19  18  60
70  2  62  19  20  21
71  2  28  2  3  4
72  2  45  10  9  43
73  2  45  10  11  12
74  2  31  3  2  1
75  2  73  24  23  71
76  2  41  8  7  6
77  2  38  7  6  5
78  2  38  7  8  9
79  2  67  21  20  65
80  2  59  17  16  57
81  2  71  23  22  68
82  2  70  23  22  69
83  2  58  17  16  57
84  2  59  17  16  56
85  2  57  16  15  55
86  2  29  2  1  26
87  2  27  1  2  3
88  2  68  22  23  24
89  2  30  3  2  29
90  2  31  3  2  28
91  2  53  14  15  16
92  2  61  18  17  59
93  2  60  18  17  58
94  2  55  15  14  52
95  2  64  20  21  22
96  2  67  21  20  64
97  2  37  6  5  4
98  2  34  5  6  7
99  2  37  6  5  34
100  2  46  11  10  9
101  2  33  4  5  6
102  2  69  22  21  66
103  2  28  2  1  26
104  2  28  2  1  25
105  2  29  2  1  25
106  2  42  9  10  11
107  2  56  16  15  14
108  2  35  5  4  33
109  2  49  12  11  10
110  2  53  14  13  51
111  2  59  17  18  19
112  2  69  22  23  24
113  2  48  12  11  10
114  2  42  9  8  41
115  2  43  9  8  40
116  2  55  15  14  13
117  2  71  23  22  21
118  2  30  3  2  28
119  2  36  6  7  8
120  2  54  15  14  13
121  2  39  7  6  5
122  2  64  20  19  18
123  2  60  18  17  16
124  2  39  7  6  37
125  2  65  20  21  22
126  2  65  20  19  18
127  2  48  12  11  46
128  2  44  10  9  42
129  2  36  6  5  35
130  2  29  2  1  27
131  2  67  21  20  19
132  2  47  11  10  45
133  2  64  20  19  63
134  2  55  15  14  53
135  2  48  12  13  14
136  2  70  23  22  68
137  2  38  7  6  37
138  2  34  5  4  3
139  2  44  10  11  12
140  2  33  4  3  2
141  2  30  3  4  5
142  2  47  11  10  9
143  2  37  6  5  35
144  2  41  8  7  39
145  2  74  24  23  71
146  2  49  12  11  46
147  2  48  12  11  47
148  2  69  22  21  67
149  2  46  11  10  45
150  2  35  5  6  7
151  2  72  24  23  70
152  2  41  8  7  38
153  2  40  8  7  39
154  2  61  18  17  16
155  2  31  3  4  5
156  2  58  17  18  19
157  2  74  24  23  70
158  2  66  21  22  23
159  2  43  9  8  7
160  2  69  22  21  20
161  2  70  23  22  21
162  2  29  2  3  4
163  2  51  13  12  11
164  2  66  21  20  19
165  2  74  24  23  22
166  2  40  8  9  10
167  2  52  14  15  16
168  2  52  14  13  51
169  2  53  14  13  50
170  2  51  13  12  49
171  2  73  24  23  22
172  2  45  10  9  8
173  2  66  21  20  64
174  2  44  10  9  8
175  2  40  8  7  6
176  2  53  14  13  12
177  2  62  19  18  60
178  2  65  20  19  63
179  2  56  16  17  18
180  2  32  4  3  30
181  2  68  22  21  67
182  2  50  13  14  15
183  2  36  6  5  34
184  2  63  19  18  61
185  2  50  13  12  48
186  2  46  11  12  13
187  2  60  18  17  59
188  2  61  18  17  58
189  2  67  21  22  23
190  2  41  8  9  10
191  2  54  15  14  53
192  2  43  9  8  41
193  2  44  10  9  43
194  2  50  13  12  11
195  2  40  8  7  38
196  2  56  16  15  55
197  2  71  23  22  69
198  2  34  5  4  32
199  2  37  6  7  8
200  2  64  20  19  62
201  2  36  6  5  4
202  2  46  11  10  44
203  2  30  3  2  1
204  2  49  12  11  47
205  2  72  24  23  71
206  2  73  24  23  70
207  2  57  16  17  18

Impropers

1  1  1  26  25  2
2  1  1  2  27  25
3  1  2  1  3  28
4  1  2  1  3  29
5  1  3  2  4  30
6  1  3  2  4  31
7  1  4  3  5  32
8  1  4  33  3  5
9  1  5  34  4  6
10  1  5  35  4  6
11  1  6  36  5  7
12  1  6  5  37  7
13  1  7  8  38  6
14  1  7  8  39  6
15  1  8  9  7  40
16  1  8  41  9  7
17  1  9  42  10  8
18  1  9  10  43  8
19  1  10  9  11  44
20  1  10  9  11  45
21  1  11  10  12  46
22  1  11  10  12  47
23  1  12  11  13  48
24  1  12  49  11  13
25  1  13  50  12  14
26  1  13  51  12  14
27  1  14  52  13  15
28  1  14  13  53  15
29  1  15  16  54  14
30  1  15  16  55  14
31  1  16  17  15  56
32  1  16  57  17  15
33  1  17  58  18  16
34  1  17  18  59  16
35  1  18  17  19  60
36  1  18  17  19  61
37  1  19  18  20  62
38  1  19  18  20  63
39  1  20  19  21  64
40  1  20  65  19  21
41  1  21  66  20  22
42  1  21  67  20  22
43  1  22  68  21  23
44  1  22  21  69  23
45  1  23  24  70  22
46  1  23  24  71  22
47  1  24  73  72  23
48  1  24  74  72  23
