#C24_acid

74 atoms
6 atom types

73 bonds
6 bond types

142 angles
9 angle types

206 dihedrals
8 dihedral types

47 impropers
2 improper types

-0.89041613749449  0.91035109276727  xlo xhi
-1.47461725387153  1.71709442585852  ylo yhi
-1.12195790783086  29.6737974841414  zlo zhi

Masses

1  12.011
2  12.011
3  15.999
4  15.999
5  1.008
6  1.008

Pair Coeffs

1  0.066  3.5
2  0.07  3.55
3  0.21  2.96
4  0.17  3.12
5  0.03  2.5
6  0.0  0.0

Bond Coeffs

1  268.0  1.529
2  317.0  1.522
3  570.0  1.229
4  450.0  1.364
5  340.0  1.09
6  553.0  0.945

Angle Coeffs

1  58.35  112.7
2  63.0  111.1
3  80.0  120.4
4  70.0  108.0
5  37.5  110.7
6  35.0  113.0
7  33.0  107.8
8  80.0  121.0
9  35.0  109.5

Dihedral Coeffs

1  1.3  -0.2  0.2  0.0
2  -2.06  -0.313  0.315  0.0
3  0.0  0.0  0.0  0.0
4  0.0  0.0  0.3  0.0
5  1.5  5.5  0.0  0.0
6  0.0  0.0  -0.1  0.0
7  0.0  5.5  0.0  0.0
8  1.0  0.546  0.45  0.0

Improper Coeffs

1  10.5  -1.0  2.0
2  0.0  -1.0  2.0

Atoms # full

1  1  1  -0.2389  -8.1285694911933e-17   -4.39055172592068e-14    28.7987689335586 
2  1  1  -0.1796   0.00555689588918936   -0.823758781675228    27.5225434086136 
3  1  1  -0.1789   0.00659007133576424    0.0754484981648114    26.2898959483351 
4  1  1  -0.1798   0.0103689292443805   -0.751568706441677    25.0086245081173 
5  1  1  -0.1798   0.0131873324136026    0.154784038683445    23.7820847305284 
6  1  1  -0.1798   0.0151614255822173   -0.670317572080926    22.5007592119851 
7  1  1  -0.18   0.0161678984127565    0.239276014040474    21.2792610668784 
8  1  1  -0.1801   0.0163357996477718   -0.586115084458745    20.0004949950625 
9  1  1  -0.18   0.0155390428752663    0.323503693035249    18.7801629667567 
10  1  1  -0.1804   0.0139155156653573   -0.504080260750848    17.5039947343926 
11  1  1  -0.1803   0.0149134964107716    0.403656504484604    16.2836950650186 
12  1  1  -0.1803   0.0114774287729827   -0.424750864164435    15.0092406544542 
13  1  1  -0.1802   0.014291233767539    0.484154590785911    13.7893847717931 
14  1  1  -0.1802   0.00905771790836508   -0.343421790711826    12.5131959332982 
15  1  1  -0.1802   0.0136835729046298    0.567337487707631    11.2945318196318 
16  1  1  -0.1802   0.0102667353703988   -0.256159372242957    10.015717703283 
17  1  1  -0.1798   0.0167101155402949    0.658063085734145    8.79839682808935 
18  1  1  -0.18   0.0115272772390432   -0.162422834140122    7.5152511091333 
19  1  1  -0.1793   0.0161389751609302    0.749066572816386    6.2937352044688 
20  1  1  -0.1792   0.00910534813672241   -0.0787886591585655    5.01414783067106 
21  1  1  -0.18   0.0153980954033473    0.816098958158575    3.7783603194442 
22  1  1  -0.1712   0.00641626293999664   -0.030657710237791    2.50858421960931 
23  1  1  -0.2606   0.0106857533773612    0.8397857843505    1.25642955237354 
24  1  2   0.4596   0    0    0 
25  1  3  -0.3939  -0.0107400517319122   -1.21897981929209   -0.038066430715463 
26  1  4  -0.5605   0.0052222322609293    0.759095202623492   -1.12195790783086 
27  1  5   0.0807   0.000613771972052562   -0.6567812965128    29.6737974841414 
28  1  5   0.0807  -0.89041613749449    0.634768097437067    28.849360505638 
29  1  5   0.0807   0.88554005747124    0.641166303440652    28.8529634936733 
30  1  5   0.0885  -0.876375409167833   -1.47461725387153    27.5079469101602 
31  1  5   0.0885   0.890902367391332   -1.47011484276822    27.512735780001 
32  1  5   0.0896   0.889029193017951    0.726687932453046    26.3090096699171 
33  1  5   0.0896  -0.877906427841285    0.723917960774899    26.3054845180491 
34  1  5   0.0896  -0.872728092854454   -1.40185360198161    24.9841308866459 
35  1  5   0.0896   0.894112681156482   -1.40146618110026    24.9880032499423 
36  1  5   0.0897   0.89659114359581    0.804632032409724    23.8044812355835 
37  1  5   0.0897  -0.87025997831026    0.804673077183357    23.8003322676892 
38  1  5   0.0899  -0.867839078074742   -1.32027835506866    22.4772470360007 
39  1  5   0.0899   0.89892807828091   -1.31982470039041    22.4786958701504 
40  1  5   0.0899   0.899885270188135    0.888700122178474    21.3007423119909 
41  1  5   0.0899  -0.866936069438597    0.889435580722453    21.2997159395766 
42  1  5   0.0901  -0.866717570473899   -1.23650829945366    19.9784519370775 
43  1  5   0.0901   0.900175919081813   -1.23592908702848    19.9774398211718 
44  1  5   0.0901   0.899880089085435    0.972361877890741    18.8008219825595 
45  1  5   0.0901  -0.867724514498359    0.973158743249011    18.8009427922479 
46  1  5   0.0902  -0.86942148348552   -1.15396549555564    17.4828127865633 
47  1  5   0.0902   0.897239263662795   -1.15397040762108    17.4833669176214 
48  1  5   0.0901   0.900058672939045    1.05138630649699    16.3038956851508 
49  1  5   0.0901  -0.866811974378308    1.05608507157796    16.306262065313 
50  1  5   0.0904  -0.874538041935789   -1.07211321218679    14.9887990662648 
51  1  5   0.0904   0.892700459228763   -1.0781339248824    14.9884777870907 
52  1  5   0.0901   0.901792228766291    1.12866792812849    13.8104815360888 
53  1  5   0.0901  -0.865112436173092    1.13874074988685    13.8129496886916 
54  1  5   0.0905  -0.878046467344046   -0.987971525275464    12.4933146184121 
55  1  5   0.0905   0.888845139814393   -0.99824142667015    12.4921638454476 
56  1  5   0.09   0.900134289432558    1.21262649499278    11.3186940286382 
57  1  5   0.09  -0.867095924331796    1.22075608223695    11.3176541393961 
58  1  5   0.0907  -0.876516954848757   -0.901747098915499    9.99293708584019 
59  1  5   0.0907   0.890333957475551   -0.910734640327164    9.99452910284292 
60  1  5   0.0898   0.904419068654237    1.30155351930369    8.82491566037562 
61  1  5   0.0898  -0.862260369076117    1.31311324430142    8.82404459279083 
62  1  5   0.0914  -0.876023710590668   -0.806944701128648    7.49415963274758 
63  1  5   0.0914   0.890718429787214   -0.817870325617672    7.49343145522207 
64  1  5   0.0897   0.904401527325563    1.39165784396372    6.31607591097554 
65  1  5   0.0897  -0.863124920902511    1.40393034894632    6.31712153791777 
66  1  5   0.094  -0.879155605850166   -0.722494989242367    4.9996682335653 
67  1  5   0.094   0.887195307079001   -0.736295824284215    4.99841374305276 
68  1  5   0.0885   0.905087413615267    1.45742203543898    3.79200398490457 
69  1  5   0.0885  -0.862215313614102    1.4738891986073    3.79510399536009 
70  1  5   0.1111  -0.879323555024102   -0.678887594413123    2.50536699487954 
71  1  5   0.1111   0.881960061959633   -0.692025438150238    2.50247227440408 
72  1  5   0.1215   0.91035109276727    1.46540730362346    1.24573483297389 
73  1  5   0.1215  -0.877300906790973    1.48109987508248    1.24924621111068 
74  1  6   0.4507   0.0149514534266151    1.71709442585852   -0.944007548076828 

Bonds

1  1  2  1
2  1  3  2
3  1  4  3
4  1  5  4
5  1  6  5
6  1  7  6
7  1  8  7
8  1  9  8
9  1  10  9
10  1  11  10
11  1  12  11
12  1  13  12
13  1  14  13
14  1  15  14
15  1  16  15
16  1  17  16
17  1  18  17
18  1  19  18
19  1  20  19
20  1  21  20
21  1  22  21
22  1  23  22
23  2  24  23
24  3  25  24
25  4  26  24
26  5  27  1
27  5  28  1
28  5  29  1
29  5  30  2
30  5  31  2
31  5  32  3
32  5  33  3
33  5  34  4
34  5  35  4
35  5  36  5
36  5  37  5
37  5  38  6
38  5  39  6
39  5  40  7
40  5  41  7
41  5  42  8
42  5  43  8
43  5  44  9
44  5  45  9
45  5  46  10
46  5  47  10
47  5  48  11
48  5  49  11
49  5  50  12
50  5  51  12
51  5  52  13
52  5  53  13
53  5  54  14
54  5  55  14
55  5  56  15
56  5  57  15
57  5  58  16
58  5  59  16
59  5  60  17
60  5  61  17
61  5  62  18
62  5  63  18
63  5  64  19
64  5  65  19
65  5  66  20
66  5  67  20
67  5  68  21
68  5  69  21
69  5  70  22
70  5  71  22
71  5  72  23
72  5  73  23
73  6  74  26

Angles

1  1  1  2  3
2  1  2  3  4
3  1  3  4  5
4  1  4  5  6
5  1  5  6  7
6  1  6  7  8
7  1  7  8  9
8  1  8  9  10
9  1  9  10  11
10  1  10  11  12
11  1  11  12  13
12  1  12  13  14
13  1  13  14  15
14  1  14  15  16
15  1  15  16  17
16  1  16  17  18
17  1  17  18  19
18  1  18  19  20
19  1  19  20  21
20  1  20  21  22
21  1  21  22  23
22  2  22  23  24
23  3  23  24  25
24  4  23  24  26
25  5  2  1  27
26  5  2  1  28
27  5  2  1  29
28  5  1  2  30
29  5  1  2  31
30  5  2  3  32
31  5  2  3  33
32  5  3  4  34
33  5  3  4  35
34  5  4  5  36
35  5  4  5  37
36  5  5  6  38
37  5  5  6  39
38  5  6  7  40
39  5  6  7  41
40  5  7  8  42
41  5  7  8  43
42  5  8  9  44
43  5  8  9  45
44  5  9  10  46
45  5  9  10  47
46  5  10  11  48
47  5  10  11  49
48  5  11  12  50
49  5  11  12  51
50  5  12  13  52
51  5  12  13  53
52  5  13  14  54
53  5  13  14  55
54  5  14  15  56
55  5  14  15  57
56  5  15  16  58
57  5  15  16  59
58  5  16  17  60
59  5  16  17  61
60  5  17  18  62
61  5  17  18  63
62  5  18  19  64
63  5  18  19  65
64  5  19  20  66
65  5  19  20  67
66  5  20  21  68
67  5  20  21  69
68  5  21  22  70
69  5  21  22  71
70  5  22  23  72
71  5  22  23  73
72  6  24  26  74
73  7  56  15  57
74  5  14  13  53
75  7  62  18  63
76  7  50  12  51
77  5  13  12  50
78  7  27  1  29
79  5  23  22  71
80  5  17  16  58
81  7  36  5  37
82  8  25  24  26
83  5  5  4  35
84  5  3  2  31
85  5  9  8  42
86  7  68  21  69
87  5  21  20  67
88  5  20  19  64
89  5  9  8  43
90  5  15  14  55
91  9  24  23  72
92  5  7  6  38
93  5  17  16  59
94  5  18  17  61
95  7  28  1  29
96  5  22  21  69
97  5  19  18  63
98  7  44  9  45
99  5  11  10  46
100  5  8  7  41
101  5  4  3  32
102  5  18  17  60
103  5  20  19  65
104  5  10  9  44
105  7  64  19  65
106  5  21  20  66
107  5  10  9  45
108  7  70  22  71
109  5  4  3  33
110  9  24  23  73
111  7  54  14  55
112  5  15  14  54
113  7  32  3  33
114  7  66  20  67
115  7  40  7  41
116  5  12  11  49
117  5  16  15  57
118  5  7  6  39
119  7  58  16  59
120  5  14  13  52
121  5  19  18  62
122  5  6  5  36
123  7  48  11  49
124  7  46  10  47
125  7  27  1  28
126  7  30  2  31
127  5  16  15  56
128  5  8  7  40
129  7  42  8  43
130  7  60  17  61
131  5  13  12  51
132  7  52  13  53
133  5  12  11  48
134  5  23  22  70
135  7  72  23  73
136  5  3  2  30
137  5  11  10  47
138  7  34  4  35
139  5  6  5  37
140  5  22  21  68
141  5  5  4  34
142  7  38  6  39

Dihedrals

1  1  4  3  2  1
2  1  5  4  3  2
3  1  6  5  4  3
4  1  7  6  5  4
5  1  8  7  6  5
6  1  9  8  7  6
7  1  10  9  8  7
8  1  11  10  9  8
9  1  12  11  10  9
10  1  13  12  11  10
11  1  14  13  12  11
12  1  15  14  13  12
13  1  16  15  14  13
14  1  17  16  15  14
15  1  18  17  16  15
16  1  19  18  17  16
17  1  20  19  18  17
18  1  21  20  19  18
19  1  22  21  20  19
20  1  23  22  21  20
21  2  24  23  22  21
22  3  25  24  23  22
23  4  27  1  2  3
24  5  74  26  24  23
25  4  32  3  2  31
26  4  39  6  5  4
27  4  36  5  6  7
28  3  73  23  24  25
29  4  63  18  17  16
30  4  60  17  18  19
31  4  55  14  13  12
32  4  44  9  8  7
33  4  65  19  18  63
34  4  52  13  12  11
35  4  56  15  16  17
36  4  42  8  9  10
37  4  45  9  8  43
38  4  47  10  9  44
39  4  72  23  22  21
40  4  60  17  16  15
41  4  63  18  19  20
42  4  73  23  22  71
43  4  68  21  22  23
44  4  50  12  11  10
45  3  73  23  24  26
46  4  34  4  3  2
47  4  58  16  15  14
48  4  37  5  4  35
49  4  42  8  7  40
50  4  67  20  21  22
51  4  49  11  10  9
52  4  59  16  15  14
53  4  52  13  14  15
54  4  39  6  5  36
55  4  66  20  19  18
56  4  42  8  7  6
57  4  66  20  21  22
58  4  31  2  1  29
59  4  58  16  15  56
60  4  72  23  22  70
61  4  64  19  18  17
62  4  35  4  3  2
63  4  69  21  20  19
64  4  67  20  19  18
65  4  32  3  4  5
66  4  50  12  11  48
67  4  53  13  14  15
68  4  53  13  12  51
69  4  68  21  20  67
70  4  69  21  20  66
71  4  30  2  1  27
72  4  66  20  19  64
73  4  37  5  4  3
74  4  43  8  7  41
75  4  44  9  10  11
76  4  47  10  9  8
77  4  38  6  5  36
78  4  51  12  11  48
79  4  45  9  8  7
80  4  58  16  15  57
81  4  59  16  15  56
82  4  40  7  6  38
83  4  69  21  20  67
84  4  48  11  10  46
85  4  50  12  13  14
86  4  53  13  12  11
87  4  33  3  2  1
88  4  31  2  1  27
89  4  30  2  1  28
90  4  43  8  9  10
91  4  41  7  6  39
92  4  59  16  15  57
93  4  36  5  4  3
94  4  55  14  13  53
95  4  62  18  17  61
96  4  30  2  3  4
97  4  29  1  2  3
98  4  46  10  9  45
99  4  61  17  16  59
100  4  45  9  10  11
101  4  51  12  11  49
102  4  36  5  4  35
103  4  70  22  21  68
104  4  60  17  16  59
105  4  61  17  16  58
106  4  55  14  15  16
107  4  68  21  20  66
108  4  62  18  17  16
109  4  65  19  20  21
110  4  62  18  19  20
111  4  68  21  20  19
112  4  54  14  13  12
113  4  65  19  18  17
114  4  61  17  18  19
115  4  71  22  21  68
116  4  38  6  5  4
117  4  70  22  21  69
118  6  70  22  23  24
119  4  54  14  13  53
120  4  48  11  10  47
121  6  71  22  23  24
122  4  71  22  21  69
123  4  37  5  4  34
124  4  28  1  2  3
125  4  51  12  11  10
126  4  54  14  15  16
127  4  32  3  2  30
128  4  67  20  19  64
129  4  66  20  19  65
130  4  40  7  6  39
131  4  41  7  6  38
132  4  43  8  7  6
133  4  47  10  9  45
134  4  40  7  8  9
135  4  73  23  22  21
136  3  72  23  24  25
137  4  46  10  9  44
138  4  42  8  7  41
139  4  43  8  7  40
140  4  52  13  12  51
141  4  46  10  11  12
142  4  35  4  5  6
143  4  67  20  19  65
144  4  57  15  14  55
145  4  51  12  13  14
146  4  47  10  11  12
147  4  72  23  22  71
148  4  57  15  16  17
149  4  38  6  7  8
150  4  53  13  12  50
151  4  59  16  17  18
152  4  41  7  8  9
153  4  35  4  3  32
154  4  34  4  3  33
155  4  50  12  11  49
156  4  34  4  3  32
157  4  48  11  12  13
158  4  49  11  10  46
159  4  39  6  5  37
160  4  45  9  8  42
161  7  74  26  24  25
162  4  49  11  12  13
163  4  57  15  14  13
164  4  57  15  14  54
165  4  32  3  2  1
166  4  56  15  14  54
167  4  44  9  8  43
168  4  71  22  21  20
169  4  35  4  3  33
170  4  56  15  14  55
171  4  64  19  18  63
172  4  39  6  7  8
173  4  55  14  13  52
174  4  69  21  22  23
175  4  38  6  5  37
176  4  33  3  2  30
177  4  65  19  18  62
178  8  26  24  23  22
179  4  44  9  8  42
180  3  72  23  24  26
181  4  34  4  5  6
182  4  56  15  14  13
183  4  36  5  4  34
184  4  70  22  21  20
185  4  48  11  10  9
186  4  30  2  1  29
187  4  31  2  1  28
188  4  31  2  3  4
189  4  64  19  20  21
190  4  62  18  17  60
191  4  41  7  6  5
192  4  61  17  16  15
193  4  58  16  17  18
194  4  40  7  6  5
195  4  63  18  17  60
196  4  33  3  2  31
197  4  46  10  9  8
198  4  52  13  12  50
199  4  64  19  18  62
200  4  60  17  16  58
201  4  63  18  17  61
202  4  33  3  4  5
203  4  54  14  13  52
204  4  49  11  10  47
205  4  73  23  22  70
206  4  37  5  6  7

Impropers

1  1  24  25  26  23
2  2  1  2  27  28
3  2  1  2  27  29
4  2  2  1  3  30
5  2  2  1  3  31
6  2  3  2  4  32
7  2  3  33  2  4
8  2  4  34  3  5
9  2  4  35  5  3
10  2  5  4  36  6
11  2  5  4  37  6
12  2  6  5  38  7
13  2  6  7  5  39
14  2  7  8  6  40
15  2  7  41  6  8
16  2  8  9  42  7
17  2  8  9  43  7
18  2  9  10  44  8
19  2  9  10  45  8
20  2  10  9  11  46
21  2  10  9  11  47
22  2  11  10  12  48
23  2  11  49  10  12
24  2  12  50  11  13
25  2  12  51  13  11
26  2  13  12  52  14
27  2  13  12  53  14
28  2  14  13  54  15
29  2  14  15  13  55
30  2  15  16  14  56
31  2  15  57  14  16
32  2  16  17  58  15
33  2  16  17  59  15
34  2  17  18  60  16
35  2  17  18  61  16
36  2  18  17  19  62
37  2  18  17  19  63
38  2  19  18  20  64
39  2  19  65  18  20
40  2  20  66  19  21
41  2  20  67  21  19
42  2  21  20  68  22
43  2  21  20  69  22
44  2  22  21  70  23
45  2  22  23  21  71
46  2  23  24  22  72
47  2  23  73  22  24
