#C24: Tetracosanoate

73 atoms
4 atom types

72 bonds
4 bond types

141 angles
7 angle types

204 dihedrals
5 dihedral types

47 impropers
2 improper types

-0.899308338073889  0.914603762309811  xlo xhi
-1.43126154390279  1.48700829846889  ylo yhi
-1.0257542591909  29.7319460707562  zlo zhi

Masses

1  12.011
2  12.011
3  15.999
4  1.008

Pair Coeffs

1  0.066  3.5
2  0.07  3.55
3  0.21  2.96
4  0.03  2.5

Bond Coeffs

1  268.0  1.529
2  317.0  1.522
3  656.0  1.25
4  340.0  1.09

Angle Coeffs

1  58.35  112.7
2  63.0  111.1
3  70.0  117.0
4  37.5  110.7
5  33.0  107.8
6  80.0  126.0
7  35.0  109.5

Dihedral Coeffs

1  1.3  -0.2  0.2  0.0
2  -2.06  -0.313  0.315  0.0
3  0.0  0.0  0.0  0.0
4  0.0  0.0  0.3  0.0
5  0.0  0.0  -0.1  0.0

Improper Coeffs

1  10.5  -1.0  2.0
2  0.0  -1.0  2.0

Atoms # full

1  1  1  -0.2093   5.90356019197798e-16   -9.77643242957177e-14    28.856828593184 
2  1  1  -0.1578  -0.00754859709032456    0.825679085578041    27.5818548419558 
3  1  1  -0.1569   0.00801164572460725   -0.0695962975096516    26.3467097135678 
4  1  1  -0.1578  -0.00141360506860588    0.76260784586273    25.0676329522663 
5  1  1  -0.1578   0.012429301404022   -0.13939659055849    23.8388627981623 
6  1  1  -0.1578   0.00123511547392465    0.690328143514254    22.5605736268598 
7  1  1  -0.1579   0.0169270514739225   -0.215525935478466    21.3364478609694 
8  1  1  -0.1581   0.00755263251844535    0.61313608376948    20.0598424905337 
9  1  1  -0.1581   0.0214467077943871   -0.293309076282338    18.8377273762786 
10  1  1  -0.1583   0.0102308069722244    0.538047850305377    17.562878143356 
11  1  1  -0.1581   0.0223211521652808   -0.368386075280892    16.3419723808176 
12  1  1  -0.1582   0.0128992224433022    0.463811300350155    15.0688482024151 
13  1  1  -0.1583   0.023183355023711   -0.442011024758238    13.8471578120328 
14  1  1  -0.1585   0.0119624246031033    0.388802199376053    12.5731479016616 
15  1  1  -0.1582   0.0204667674061246   -0.519224664654171    11.3512317758359 
16  1  1  -0.1582   0.00747256374993136    0.309396906673559    10.0746216423959 
17  1  1  -0.1581   0.017797316318399   -0.599734635031254    8.85436213828957 
18  1  1  -0.1587   0.00663472403693902    0.226183501468267    7.57599040333345 
19  1  1  -0.1581   0.0151264167772916   -0.680793831715032    6.34998844528195 
20  1  1  -0.1577   0.00209533275768533    0.151107419872414    5.07431106970593 
21  1  1  -0.1614   0.0122061090885573   -0.743370481105719    3.83852326151889 
22  1  1  -0.1359   0.000822045921681915    0.101146859533685    2.56743218285255 
23  1  1  -0.2334   0.008886633728346   -0.77223651323506    1.32148946490978 
24  1  2   0.4284   0    0    0 
25  1  3  -0.6312  -0.0128573874553542    1.25793663743286    0.0760557051899508 
26  1  3  -0.6312   0.00537697040191851   -0.739449718128985   -1.0257542591909 
27  1  4   0.0702  -0.0126145769295257    0.655793031753509    29.7319460707562 
28  1  4   0.0702   0.896684992948973   -0.625511641409656    28.9098888276465 
29  1  4   0.0702  -0.879179590616032   -0.650564872347701    28.9041784021759 
30  1  4   0.0774   0.866604933550724    1.48700829846889    27.5736735495786 
31  1  4   0.0774  -0.899308338073889    1.46324775591074    27.5687413576317 
32  1  4   0.0785  -0.865719161070789   -0.732848914841439    26.3595998826589 
33  1  4   0.0785   0.900663454778526   -0.707298042901321    26.3633059275091 
34  1  4   0.0785   0.873203423098289    1.42437864833356    25.0490123175398 
35  1  4   0.0785  -0.893709030898005    1.39968083671126    25.0482446497301 
36  1  4   0.0786  -0.861856528281967   -0.801676971917685    23.8559600692019 
37  1  4   0.0786   0.90541832146693   -0.775607994002281    23.8564221681729 
38  1  4   0.0787   0.87442342384073    1.35352988756965    22.5416967385198 
39  1  4   0.0787  -0.892138820896209    1.32620938402343    22.539228529459 
40  1  4   0.0787  -0.857032296458651   -0.878446277820703    21.3543201543343 
41  1  4   0.0787   0.909649133870704   -0.852815825196527    21.3580759668572 
42  1  4   0.0788   0.882179704052228    1.27512327846538    20.0401705359055 
43  1  4   0.0788  -0.884540908030746    1.25139780430318    20.0376486285044 
44  1  4   0.0787  -0.852160017979374   -0.956617197753434    18.8565378513745 
45  1  4   0.0787   0.914218444084032   -0.930356856391538    18.8583205824475 
46  1  4   0.0788   0.884891688084545    1.1995674153514    17.5440945464389 
47  1  4   0.0788  -0.88185749557111    1.17596306635629    17.5440340435879 
48  1  4   0.0786  -0.853002137346706   -1.02910033074226    16.3612814219134 
49  1  4   0.0786   0.913757270815393   -1.00725465733216    16.3625857316811 
50  1  4   0.0787   0.88889947469548    1.1238567466955    15.0502934264018 
51  1  4   0.0787  -0.877838221012377    1.10385811326855    15.0501851399908 
52  1  4   0.0783  -0.852203701292543   -1.1026989625083    13.8676756712178 
53  1  4   0.0783   0.914603762309811   -1.0809405741485    13.8665403761006 
54  1  4   0.0785   0.888364081486569    1.0481059688159    12.5541104355927 
55  1  4   0.0785  -0.879152371669115    1.02823512680988    12.5564723123727 
56  1  4   0.0777  -0.855366222156586   -1.17888013433864    11.3759950976851 
57  1  4   0.0777   0.911397232674319   -1.15794697685793    11.3731342425938 
58  1  4   0.078   0.88379822936558    0.969310439778644    10.0547881150229 
59  1  4   0.078  -0.88316482079318    0.948349406218437    10.0576320991543 
60  1  4   0.0765  -0.858200129095205   -1.2597532788381    8.87889124051972 
61  1  4   0.0765   0.908904534704577   -1.23911571713519    8.87702833311025 
62  1  4   0.077   0.883058307393118    0.885361652195707    7.55687145616924 
63  1  4   0.077  -0.883563871981254    0.866743238612923    7.55884771986764 
64  1  4   0.0737  -0.861078337454081   -1.34033679740389    6.37482682632183 
65  1  4   0.0737   0.90642007763385   -1.31885008842064    6.37112870535003 
66  1  4   0.0757   0.876734511634708    0.812733409376419    5.05917071349565 
67  1  4   0.0757  -0.890023759726054    0.789284025665204    5.06159341485987 
68  1  4   0.0652  -0.863458300758766   -1.40335662617612    3.85473165878228 
69  1  4   0.0652   0.903950005757797   -1.38164889069716    3.85356000327305 
70  1  4   0.0794   0.875260132524286    0.763701076566001    2.56242531841721 
71  1  4   0.0794  -0.888397072960522    0.743907490803574    2.56481437768535 
72  1  4   0.059  -0.868692571188808   -1.43126154390279    1.33118323870397 
73  1  4   0.059   0.900384489304202   -1.41229102271524    1.32942046722561 

Bonds

1  1  2  1
2  1  3  2
3  1  4  3
4  1  5  4
5  1  6  5
6  1  7  6
7  1  8  7
8  1  9  8
9  1  10  9
10  1  11  10
11  1  12  11
12  1  13  12
13  1  14  13
14  1  15  14
15  1  16  15
16  1  17  16
17  1  18  17
18  1  19  18
19  1  20  19
20  1  21  20
21  1  22  21
22  1  23  22
23  2  24  23
24  3  25  24
25  3  26  24
26  4  27  1
27  4  28  1
28  4  29  1
29  4  30  2
30  4  31  2
31  4  32  3
32  4  33  3
33  4  34  4
34  4  35  4
35  4  36  5
36  4  37  5
37  4  38  6
38  4  39  6
39  4  40  7
40  4  41  7
41  4  42  8
42  4  43  8
43  4  44  9
44  4  45  9
45  4  46  10
46  4  47  10
47  4  48  11
48  4  49  11
49  4  50  12
50  4  51  12
51  4  52  13
52  4  53  13
53  4  54  14
54  4  55  14
55  4  56  15
56  4  57  15
57  4  58  16
58  4  59  16
59  4  60  17
60  4  61  17
61  4  62  18
62  4  63  18
63  4  64  19
64  4  65  19
65  4  66  20
66  4  67  20
67  4  68  21
68  4  69  21
69  4  70  22
70  4  71  22
71  4  72  23
72  4  73  23

Angles

1  1  1  2  3
2  1  2  3  4
3  1  3  4  5
4  1  4  5  6
5  1  5  6  7
6  1  6  7  8
7  1  7  8  9
8  1  8  9  10
9  1  9  10  11
10  1  10  11  12
11  1  11  12  13
12  1  12  13  14
13  1  13  14  15
14  1  14  15  16
15  1  15  16  17
16  1  16  17  18
17  1  17  18  19
18  1  18  19  20
19  1  19  20  21
20  1  20  21  22
21  1  21  22  23
22  2  22  23  24
23  3  23  24  25
24  3  23  24  26
25  4  2  1  27
26  4  2  1  28
27  4  2  1  29
28  4  1  2  30
29  4  1  2  31
30  4  2  3  32
31  4  2  3  33
32  4  3  4  34
33  4  3  4  35
34  4  4  5  36
35  4  4  5  37
36  4  5  6  38
37  4  5  6  39
38  4  6  7  40
39  4  6  7  41
40  4  7  8  42
41  4  7  8  43
42  4  8  9  44
43  4  8  9  45
44  4  9  10  46
45  4  9  10  47
46  4  10  11  48
47  4  10  11  49
48  4  11  12  50
49  4  11  12  51
50  4  12  13  52
51  4  12  13  53
52  4  13  14  54
53  4  13  14  55
54  4  14  15  56
55  4  14  15  57
56  4  15  16  58
57  4  15  16  59
58  4  16  17  60
59  4  16  17  61
60  4  17  18  62
61  4  17  18  63
62  4  18  19  64
63  4  18  19  65
64  4  19  20  66
65  4  19  20  67
66  4  20  21  68
67  4  20  21  69
68  4  21  22  70
69  4  21  22  71
70  4  22  23  72
71  4  22  23  73
72  5  56  15  57
73  4  14  13  53
74  5  62  18  63
75  5  50  12  51
76  4  13  12  50
77  5  27  1  29
78  4  23  22  71
79  4  17  16  58
80  5  36  5  37
81  6  25  24  26
82  4  5  4  35
83  4  3  2  31
84  4  9  8  42
85  5  68  21  69
86  4  21  20  67
87  4  20  19  64
88  4  9  8  43
89  4  15  14  55
90  7  24  23  72
91  4  7  6  38
92  4  17  16  59
93  4  18  17  61
94  5  28  1  29
95  4  22  21  69
96  4  19  18  63
97  5  44  9  45
98  4  11  10  46
99  4  8  7  41
100  4  4  3  32
101  4  18  17  60
102  4  20  19  65
103  4  10  9  44
104  5  64  19  65
105  4  21  20  66
106  4  10  9  45
107  5  70  22  71
108  4  4  3  33
109  7  24  23  73
110  5  54  14  55
111  4  15  14  54
112  5  32  3  33
113  5  66  20  67
114  5  40  7  41
115  4  12  11  49
116  4  16  15  57
117  4  7  6  39
118  5  58  16  59
119  4  14  13  52
120  4  19  18  62
121  4  6  5  36
122  5  48  11  49
123  5  46  10  47
124  5  27  1  28
125  5  30  2  31
126  4  16  15  56
127  4  8  7  40
128  5  42  8  43
129  5  60  17  61
130  4  13  12  51
131  5  52  13  53
132  4  12  11  48
133  4  23  22  70
134  5  72  23  73
135  4  3  2  30
136  4  11  10  47
137  5  34  4  35
138  4  6  5  37
139  4  22  21  68
140  4  5  4  34
141  5  38  6  39

Dihedrals

1  1  4  3  2  1
2  1  5  4  3  2
3  1  6  5  4  3
4  1  7  6  5  4
5  1  8  7  6  5
6  1  9  8  7  6
7  1  10  9  8  7
8  1  11  10  9  8
9  1  12  11  10  9
10  1  13  12  11  10
11  1  14  13  12  11
12  1  15  14  13  12
13  1  16  15  14  13
14  1  17  16  15  14
15  1  18  17  16  15
16  1  19  18  17  16
17  1  20  19  18  17
18  1  21  20  19  18
19  1  22  21  20  19
20  1  23  22  21  20
21  2  24  23  22  21
22  3  25  24  23  22
23  4  27  1  2  3
24  4  32  3  2  31
25  4  39  6  5  4
26  4  36  5  6  7
27  3  73  23  24  25
28  4  63  18  17  16
29  4  60  17  18  19
30  4  55  14  13  12
31  4  44  9  8  7
32  4  65  19  18  63
33  4  52  13  12  11
34  4  56  15  16  17
35  4  42  8  9  10
36  4  45  9  8  43
37  4  47  10  9  44
38  4  72  23  22  21
39  4  60  17  16  15
40  4  63  18  19  20
41  4  73  23  22  71
42  4  68  21  22  23
43  4  50  12  11  10
44  3  73  23  24  26
45  4  34  4  3  2
46  4  58  16  15  14
47  4  37  5  4  35
48  4  42  8  7  40
49  4  67  20  21  22
50  4  49  11  10  9
51  4  59  16  15  14
52  4  52  13  14  15
53  4  39  6  5  36
54  4  66  20  19  18
55  4  42  8  7  6
56  4  66  20  21  22
57  4  31  2  1  29
58  4  58  16  15  56
59  4  72  23  22  70
60  4  64  19  18  17
61  4  35  4  3  2
62  4  69  21  20  19
63  4  67  20  19  18
64  4  32  3  4  5
65  4  50  12  11  48
66  4  53  13  14  15
67  4  53  13  12  51
68  4  68  21  20  67
69  4  69  21  20  66
70  4  30  2  1  27
71  4  66  20  19  64
72  4  37  5  4  3
73  4  43  8  7  41
74  4  44  9  10  11
75  4  47  10  9  8
76  4  38  6  5  36
77  4  51  12  11  48
78  4  45  9  8  7
79  4  58  16  15  57
80  4  59  16  15  56
81  4  40  7  6  38
82  4  69  21  20  67
83  4  48  11  10  46
84  4  50  12  13  14
85  4  53  13  12  11
86  4  33  3  2  1
87  4  31  2  1  27
88  4  30  2  1  28
89  4  43  8  9  10
90  4  41  7  6  39
91  4  59  16  15  57
92  4  36  5  4  3
93  4  55  14  13  53
94  4  62  18  17  61
95  4  30  2  3  4
96  4  29  1  2  3
97  4  46  10  9  45
98  4  61  17  16  59
99  4  45  9  10  11
100  4  51  12  11  49
101  4  36  5  4  35
102  4  70  22  21  68
103  4  60  17  16  59
104  4  61  17  16  58
105  4  55  14  15  16
106  4  68  21  20  66
107  4  62  18  17  16
108  4  65  19  20  21
109  4  62  18  19  20
110  4  68  21  20  19
111  4  54  14  13  12
112  4  65  19  18  17
113  4  61  17  18  19
114  4  38  6  5  4
115  4  70  22  21  69
116  5  70  22  23  24
117  4  54  14  13  53
118  4  48  11  10  47
119  5  71  22  23  24
120  4  71  22  21  69
121  4  37  5  4  34
122  4  28  1  2  3
123  4  51  12  11  10
124  4  54  14  15  16
125  4  32  3  2  30
126  4  67  20  19  64
127  4  66  20  19  65
128  4  40  7  6  39
129  4  41  7  6  38
130  4  43  8  7  6
131  4  47  10  9  45
132  4  40  7  8  9
133  4  73  23  22  21
134  3  72  23  24  25
135  4  46  10  9  44
136  4  42  8  7  41
137  4  43  8  7  40
138  4  52  13  12  51
139  4  46  10  11  12
140  4  35  4  5  6
141  4  67  20  19  65
142  4  57  15  14  55
143  4  51  12  13  14
144  4  47  10  11  12
145  4  72  23  22  71
146  4  57  15  16  17
147  4  38  6  7  8
148  4  53  13  12  50
149  4  59  16  17  18
150  4  41  7  8  9
151  4  35  4  3  32
152  4  34  4  3  33
153  4  50  12  11  49
154  4  34  4  3  32
155  4  48  11  12  13
156  4  49  11  10  46
157  4  39  6  5  37
158  4  45  9  8  42
159  4  71  22  21  68
160  4  49  11  12  13
161  4  57  15  14  13
162  4  57  15  14  54
163  4  32  3  2  1
164  4  56  15  14  54
165  4  44  9  8  43
166  4  71  22  21  20
167  4  35  4  3  33
168  4  56  15  14  55
169  4  64  19  18  63
170  4  39  6  7  8
171  4  55  14  13  52
172  4  69  21  22  23
173  4  38  6  5  37
174  4  33  3  2  30
175  4  65  19  18  62
176  3  26  24  23  22
177  4  44  9  8  42
178  3  72  23  24  26
179  4  34  4  5  6
180  4  56  15  14  13
181  4  36  5  4  34
182  4  70  22  21  20
183  4  48  11  10  9
184  4  30  2  1  29
185  4  31  2  1  28
186  4  31  2  3  4
187  4  64  19  20  21
188  4  62  18  17  60
189  4  41  7  6  5
190  4  61  17  16  15
191  4  58  16  17  18
192  4  40  7  6  5
193  4  63  18  17  60
194  4  33  3  2  31
195  4  46  10  9  8
196  4  52  13  12  50
197  4  64  19  18  62
198  4  60  17  16  58
199  4  63  18  17  61
200  4  33  3  4  5
201  4  54  14  13  52
202  4  49  11  10  47
203  4  73  23  22  70
204  4  37  5  6  7

Impropers

1  1  24  25  26  23
2  2  1  2  27  28
3  2  1  2  27  29
4  2  2  1  3  30
5  2  2  1  3  31
6  2  3  2  4  32
7  2  3  33  2  4
8  2  4  34  3  5
9  2  4  35  5  3
10  2  5  4  36  6
11  2  5  4  37  6
12  2  6  5  38  7
13  2  6  7  5  39
14  2  7  8  6  40
15  2  7  41  6  8
16  2  8  9  42  7
17  2  8  9  43  7
18  2  9  10  44  8
19  2  9  10  45  8
20  2  10  9  11  46
21  2  10  9  11  47
22  2  11  10  12  48
23  2  11  49  10  12
24  2  12  50  11  13
25  2  12  51  13  11
26  2  13  12  52  14
27  2  13  12  53  14
28  2  14  13  54  15
29  2  14  15  13  55
30  2  15  16  14  56
31  2  15  57  14  16
32  2  16  17  58  15
33  2  16  17  59  15
34  2  17  18  60  16
35  2  17  18  61  16
36  2  18  17  19  62
37  2  18  17  19  63
38  2  19  18  20  64
39  2  19  65  18  20
40  2  20  66  19  21
41  2  20  67  21  19
42  2  21  20  68  22
43  2  21  20  69  22
44  2  22  21  70  23
45  2  22  23  21  71
46  2  23  24  22  72
47  2  23  73  22  24
