LAMMPS data file Created by LigParGen - (Written by Leela S. Dodda)

      74 atoms
      73 bonds
     142 angles
     206 dihedrals
      47 impropers
 
      74 atom types
      73 bond types
     142 angle types
     206 dihedral types
      47 improper types
 
  -23.888620    26.111380 xlo xhi
    0.047860    50.047860 ylo yhi
   -1.026350    48.973650 zlo zhi

Masses

       1     12.011  
       2     12.011  
       3     12.011  
       4     12.011  
       5     12.011  
       6     12.011  
       7     12.011  
       8     12.011  
       9     12.011  
      10     12.011  
      11     12.011  
      12     12.011  
      13     12.011  
      14     12.011  
      15     12.011  
      16     12.011  
      17     12.011  
      18     12.011  
      19     12.011  
      20     12.011  
      21     12.011  
      22     12.011  
      23     12.011  
      24     12.011  
      25     15.999  
      26     15.999  
      27      1.008  
      28      1.008  
      29      1.008  
      30      1.008  
      31      1.008  
      32      1.008  
      33      1.008  
      34      1.008  
      35      1.008  
      36      1.008  
      37      1.008  
      38      1.008  
      39      1.008  
      40      1.008  
      41      1.008  
      42      1.008  
      43      1.008  
      44      1.008  
      45      1.008  
      46      1.008  
      47      1.008  
      48      1.008  
      49      1.008  
      50      1.008  
      51      1.008  
      52      1.008  
      53      1.008  
      54      1.008  
      55      1.008  
      56      1.008  
      57      1.008  
      58      1.008  
      59      1.008  
      60      1.008  
      61      1.008  
      62      1.008  
      63      1.008  
      64      1.008  
      65      1.008  
      66      1.008  
      67      1.008  
      68      1.008  
      69      1.008  
      70      1.008  
      71      1.008  
      72      1.008  
      73      1.008  
      74      1.008  

Pair Coeffs 

       1      0.066  3.5000000 
       2      0.066  3.5000000 
       3      0.066  3.5000000 
       4      0.066  3.5000000 
       5      0.066  3.5000000 
       6      0.066  3.5000000 
       7      0.066  3.5000000 
       8      0.066  3.5000000 
       9      0.066  3.5000000 
      10      0.066  3.5000000 
      11      0.066  3.5000000 
      12      0.066  3.5000000 
      13      0.066  3.5000000 
      14      0.066  3.5000000 
      15      0.066  3.5000000 
      16      0.066  3.5000000 
      17      0.066  3.5000000 
      18      0.066  3.5000000 
      19      0.066  3.5000000 
      20      0.066  3.5000000 
      21      0.066  3.5000000 
      22      0.066  3.5000000 
      23      0.066  3.5000000 
      24      0.070  3.5500000 
      25      0.210  2.9600000 
      26      0.170  3.1200000 
      27      0.030  2.5000000 
      28      0.030  2.5000000 
      29      0.030  2.5000000 
      30      0.030  2.5000000 
      31      0.030  2.5000000 
      32      0.030  2.5000000 
      33      0.030  2.5000000 
      34      0.030  2.5000000 
      35      0.030  2.5000000 
      36      0.030  2.5000000 
      37      0.030  2.5000000 
      38      0.030  2.5000000 
      39      0.030  2.5000000 
      40      0.030  2.5000000 
      41      0.030  2.5000000 
      42      0.030  2.5000000 
      43      0.030  2.5000000 
      44      0.030  2.5000000 
      45      0.030  2.5000000 
      46      0.030  2.5000000 
      47      0.030  2.5000000 
      48      0.030  2.5000000 
      49      0.030  2.5000000 
      50      0.030  2.5000000 
      51      0.030  2.5000000 
      52      0.030  2.5000000 
      53      0.030  2.5000000 
      54      0.030  2.5000000 
      55      0.030  2.5000000 
      56      0.030  2.5000000 
      57      0.030  2.5000000 
      58      0.030  2.5000000 
      59      0.030  2.5000000 
      60      0.030  2.5000000 
      61      0.030  2.5000000 
      62      0.030  2.5000000 
      63      0.030  2.5000000 
      64      0.030  2.5000000 
      65      0.030  2.5000000 
      66      0.030  2.5000000 
      67      0.030  2.5000000 
      68      0.030  2.5000000 
      69      0.030  2.5000000 
      70      0.030  2.5000000 
      71      0.030  2.5000000 
      72      0.030  2.5000000 
      73      0.030  2.5000000 
      74      0.000  0.0000000 

Bond Coeffs 

       1   268.0000     1.5290 
       2   268.0000     1.5290 
       3   268.0000     1.5290 
       4   268.0000     1.5290 
       5   268.0000     1.5290 
       6   268.0000     1.5290 
       7   268.0000     1.5290 
       8   268.0000     1.5290 
       9   268.0000     1.5290 
      10   268.0000     1.5290 
      11   268.0000     1.5290 
      12   268.0000     1.5290 
      13   268.0000     1.5290 
      14   268.0000     1.5290 
      15   268.0000     1.5290 
      16   268.0000     1.5290 
      17   268.0000     1.5290 
      18   268.0000     1.5290 
      19   268.0000     1.5290 
      20   268.0000     1.5290 
      21   268.0000     1.5290 
      22   268.0000     1.5290 
      23   317.0000     1.5220 
      24   570.0000     1.2290 
      25   450.0000     1.3640 
      26   340.0000     1.0900 
      27   340.0000     1.0900 
      28   340.0000     1.0900 
      29   340.0000     1.0900 
      30   340.0000     1.0900 
      31   340.0000     1.0900 
      32   340.0000     1.0900 
      33   340.0000     1.0900 
      34   340.0000     1.0900 
      35   340.0000     1.0900 
      36   340.0000     1.0900 
      37   340.0000     1.0900 
      38   340.0000     1.0900 
      39   340.0000     1.0900 
      40   340.0000     1.0900 
      41   340.0000     1.0900 
      42   340.0000     1.0900 
      43   340.0000     1.0900 
      44   340.0000     1.0900 
      45   340.0000     1.0900 
      46   340.0000     1.0900 
      47   340.0000     1.0900 
      48   340.0000     1.0900 
      49   340.0000     1.0900 
      50   340.0000     1.0900 
      51   340.0000     1.0900 
      52   340.0000     1.0900 
      53   340.0000     1.0900 
      54   340.0000     1.0900 
      55   340.0000     1.0900 
      56   340.0000     1.0900 
      57   340.0000     1.0900 
      58   340.0000     1.0900 
      59   340.0000     1.0900 
      60   340.0000     1.0900 
      61   340.0000     1.0900 
      62   340.0000     1.0900 
      63   340.0000     1.0900 
      64   340.0000     1.0900 
      65   340.0000     1.0900 
      66   340.0000     1.0900 
      67   340.0000     1.0900 
      68   340.0000     1.0900 
      69   340.0000     1.0900 
      70   340.0000     1.0900 
      71   340.0000     1.0900 
      72   340.0000     1.0900 
      73   553.0000     0.9450 

Angle Coeffs 

       1     58.350    112.700
       2     58.350    112.700
       3     58.350    112.700
       4     58.350    112.700
       5     58.350    112.700
       6     58.350    112.700
       7     58.350    112.700
       8     58.350    112.700
       9     58.350    112.700
      10     58.350    112.700
      11     58.350    112.700
      12     58.350    112.700
      13     58.350    112.700
      14     58.350    112.700
      15     58.350    112.700
      16     58.350    112.700
      17     58.350    112.700
      18     58.350    112.700
      19     58.350    112.700
      20     58.350    112.700
      21     58.350    112.700
      22     63.000    111.100
      23     80.000    120.400
      24     70.000    108.000
      25     37.500    110.700
      26     37.500    110.700
      27     37.500    110.700
      28     37.500    110.700
      29     37.500    110.700
      30     37.500    110.700
      31     37.500    110.700
      32     37.500    110.700
      33     37.500    110.700
      34     37.500    110.700
      35     37.500    110.700
      36     37.500    110.700
      37     37.500    110.700
      38     37.500    110.700
      39     37.500    110.700
      40     37.500    110.700
      41     37.500    110.700
      42     37.500    110.700
      43     37.500    110.700
      44     37.500    110.700
      45     37.500    110.700
      46     37.500    110.700
      47     37.500    110.700
      48     37.500    110.700
      49     37.500    110.700
      50     37.500    110.700
      51     37.500    110.700
      52     37.500    110.700
      53     37.500    110.700
      54     37.500    110.700
      55     37.500    110.700
      56     37.500    110.700
      57     37.500    110.700
      58     37.500    110.700
      59     37.500    110.700
      60     37.500    110.700
      61     37.500    110.700
      62     37.500    110.700
      63     37.500    110.700
      64     37.500    110.700
      65     37.500    110.700
      66     37.500    110.700
      67     37.500    110.700
      68     37.500    110.700
      69     37.500    110.700
      70     37.500    110.700
      71     37.500    110.700
      72     35.000    113.000
      73     33.000    107.800
      74     37.500    110.700
      75     33.000    107.800
      76     33.000    107.800
      77     37.500    110.700
      78     33.000    107.800
      79     37.500    110.700
      80     37.500    110.700
      81     33.000    107.800
      82     80.000    121.000
      83     37.500    110.700
      84     37.500    110.700
      85     37.500    110.700
      86     33.000    107.800
      87     37.500    110.700
      88     37.500    110.700
      89     37.500    110.700
      90     37.500    110.700
      91     35.000    109.500
      92     37.500    110.700
      93     37.500    110.700
      94     37.500    110.700
      95     33.000    107.800
      96     37.500    110.700
      97     37.500    110.700
      98     33.000    107.800
      99     37.500    110.700
     100     37.500    110.700
     101     37.500    110.700
     102     37.500    110.700
     103     37.500    110.700
     104     37.500    110.700
     105     33.000    107.800
     106     37.500    110.700
     107     37.500    110.700
     108     33.000    107.800
     109     37.500    110.700
     110     35.000    109.500
     111     33.000    107.800
     112     37.500    110.700
     113     33.000    107.800
     114     33.000    107.800
     115     33.000    107.800
     116     37.500    110.700
     117     37.500    110.700
     118     37.500    110.700
     119     33.000    107.800
     120     37.500    110.700
     121     37.500    110.700
     122     37.500    110.700
     123     33.000    107.800
     124     33.000    107.800
     125     33.000    107.800
     126     33.000    107.800
     127     37.500    110.700
     128     37.500    110.700
     129     33.000    107.800
     130     33.000    107.800
     131     37.500    110.700
     132     33.000    107.800
     133     37.500    110.700
     134     37.500    110.700
     135     33.000    107.800
     136     37.500    110.700
     137     37.500    110.700
     138     33.000    107.800
     139     37.500    110.700
     140     37.500    110.700
     141     37.500    110.700
     142     33.000    107.800

Dihedral Coeffs  

       1      1.300     -0.200      0.200      0.000 
       2      1.300     -0.200      0.200      0.000 
       3      1.300     -0.200      0.200      0.000 
       4      1.300     -0.200      0.200      0.000 
       5      1.300     -0.200      0.200      0.000 
       6      1.300     -0.200      0.200      0.000 
       7      1.300     -0.200      0.200      0.000 
       8      1.300     -0.200      0.200      0.000 
       9      1.300     -0.200      0.200      0.000 
      10      1.300     -0.200      0.200      0.000 
      11      1.300     -0.200      0.200      0.000 
      12      1.300     -0.200      0.200      0.000 
      13      1.300     -0.200      0.200      0.000 
      14      1.300     -0.200      0.200      0.000 
      15      1.300     -0.200      0.200      0.000 
      16      1.300     -0.200      0.200      0.000 
      17      1.300     -0.200      0.200      0.000 
      18      1.300     -0.200      0.200      0.000 
      19      1.300     -0.200      0.200      0.000 
      20      1.300     -0.200      0.200      0.000 
      21     -2.060     -0.313      0.315      0.000 
      22      0.000      0.000      0.000      0.000 
      23      0.000      0.000      0.300      0.000 
      24      1.500      5.500      0.000      0.000 
      25      0.000      0.000      0.300      0.000 
      26      0.000      0.000      0.300      0.000 
      27      0.000      0.000      0.300      0.000 
      28      0.000      0.000      0.000      0.000 
      29      0.000      0.000      0.300      0.000 
      30      0.000      0.000      0.300      0.000 
      31      0.000      0.000      0.300      0.000 
      32      0.000      0.000      0.300      0.000 
      33      0.000      0.000      0.300      0.000 
      34      0.000      0.000      0.300      0.000 
      35      0.000      0.000      0.300      0.000 
      36      0.000      0.000      0.300      0.000 
      37      0.000      0.000      0.300      0.000 
      38      0.000      0.000      0.300      0.000 
      39      0.000      0.000      0.300      0.000 
      40      0.000      0.000      0.300      0.000 
      41      0.000      0.000      0.300      0.000 
      42      0.000      0.000      0.300      0.000 
      43      0.000      0.000      0.300      0.000 
      44      0.000      0.000      0.300      0.000 
      45      0.000      0.000      0.000      0.000 
      46      0.000      0.000      0.300      0.000 
      47      0.000      0.000      0.300      0.000 
      48      0.000      0.000      0.300      0.000 
      49      0.000      0.000      0.300      0.000 
      50      0.000      0.000      0.300      0.000 
      51      0.000      0.000      0.300      0.000 
      52      0.000      0.000      0.300      0.000 
      53      0.000      0.000      0.300      0.000 
      54      0.000      0.000      0.300      0.000 
      55      0.000      0.000      0.300      0.000 
      56      0.000      0.000      0.300      0.000 
      57      0.000      0.000      0.300      0.000 
      58      0.000      0.000      0.300      0.000 
      59      0.000      0.000      0.300      0.000 
      60      0.000      0.000      0.300      0.000 
      61      0.000      0.000      0.300      0.000 
      62      0.000      0.000      0.300      0.000 
      63      0.000      0.000      0.300      0.000 
      64      0.000      0.000      0.300      0.000 
      65      0.000      0.000      0.300      0.000 
      66      0.000      0.000      0.300      0.000 
      67      0.000      0.000      0.300      0.000 
      68      0.000      0.000      0.300      0.000 
      69      0.000      0.000      0.300      0.000 
      70      0.000      0.000      0.300      0.000 
      71      0.000      0.000      0.300      0.000 
      72      0.000      0.000      0.300      0.000 
      73      0.000      0.000      0.300      0.000 
      74      0.000      0.000      0.300      0.000 
      75      0.000      0.000      0.300      0.000 
      76      0.000      0.000      0.300      0.000 
      77      0.000      0.000      0.300      0.000 
      78      0.000      0.000      0.300      0.000 
      79      0.000      0.000      0.300      0.000 
      80      0.000      0.000      0.300      0.000 
      81      0.000      0.000      0.300      0.000 
      82      0.000      0.000      0.300      0.000 
      83      0.000      0.000      0.300      0.000 
      84      0.000      0.000      0.300      0.000 
      85      0.000      0.000      0.300      0.000 
      86      0.000      0.000      0.300      0.000 
      87      0.000      0.000      0.300      0.000 
      88      0.000      0.000      0.300      0.000 
      89      0.000      0.000      0.300      0.000 
      90      0.000      0.000      0.300      0.000 
      91      0.000      0.000      0.300      0.000 
      92      0.000      0.000      0.300      0.000 
      93      0.000      0.000      0.300      0.000 
      94      0.000      0.000      0.300      0.000 
      95      0.000      0.000      0.300      0.000 
      96      0.000      0.000      0.300      0.000 
      97      0.000      0.000      0.300      0.000 
      98      0.000      0.000      0.300      0.000 
      99      0.000      0.000      0.300      0.000 
     100      0.000      0.000      0.300      0.000 
     101      0.000      0.000      0.300      0.000 
     102      0.000      0.000      0.300      0.000 
     103      0.000      0.000      0.300      0.000 
     104      0.000      0.000      0.300      0.000 
     105      0.000      0.000      0.300      0.000 
     106      0.000      0.000      0.300      0.000 
     107      0.000      0.000      0.300      0.000 
     108      0.000      0.000      0.300      0.000 
     109      0.000      0.000      0.300      0.000 
     110      0.000      0.000      0.300      0.000 
     111      0.000      0.000      0.300      0.000 
     112      0.000      0.000      0.300      0.000 
     113      0.000      0.000      0.300      0.000 
     114      0.000      0.000      0.300      0.000 
     115      0.000      0.000      0.300      0.000 
     116      0.000      0.000      0.300      0.000 
     117      0.000      0.000      0.300      0.000 
     118      0.000      0.000     -0.100      0.000 
     119      0.000      0.000      0.300      0.000 
     120      0.000      0.000      0.300      0.000 
     121      0.000      0.000     -0.100      0.000 
     122      0.000      0.000      0.300      0.000 
     123      0.000      0.000      0.300      0.000 
     124      0.000      0.000      0.300      0.000 
     125      0.000      0.000      0.300      0.000 
     126      0.000      0.000      0.300      0.000 
     127      0.000      0.000      0.300      0.000 
     128      0.000      0.000      0.300      0.000 
     129      0.000      0.000      0.300      0.000 
     130      0.000      0.000      0.300      0.000 
     131      0.000      0.000      0.300      0.000 
     132      0.000      0.000      0.300      0.000 
     133      0.000      0.000      0.300      0.000 
     134      0.000      0.000      0.300      0.000 
     135      0.000      0.000      0.300      0.000 
     136      0.000      0.000      0.000      0.000 
     137      0.000      0.000      0.300      0.000 
     138      0.000      0.000      0.300      0.000 
     139      0.000      0.000      0.300      0.000 
     140      0.000      0.000      0.300      0.000 
     141      0.000      0.000      0.300      0.000 
     142      0.000      0.000      0.300      0.000 
     143      0.000      0.000      0.300      0.000 
     144      0.000      0.000      0.300      0.000 
     145      0.000      0.000      0.300      0.000 
     146      0.000      0.000      0.300      0.000 
     147      0.000      0.000      0.300      0.000 
     148      0.000      0.000      0.300      0.000 
     149      0.000      0.000      0.300      0.000 
     150      0.000      0.000      0.300      0.000 
     151      0.000      0.000      0.300      0.000 
     152      0.000      0.000      0.300      0.000 
     153      0.000      0.000      0.300      0.000 
     154      0.000      0.000      0.300      0.000 
     155      0.000      0.000      0.300      0.000 
     156      0.000      0.000      0.300      0.000 
     157      0.000      0.000      0.300      0.000 
     158      0.000      0.000      0.300      0.000 
     159      0.000      0.000      0.300      0.000 
     160      0.000      0.000      0.300      0.000 
     161      0.000      5.500      0.000      0.000 
     162      0.000      0.000      0.300      0.000 
     163      0.000      0.000      0.300      0.000 
     164      0.000      0.000      0.300      0.000 
     165      0.000      0.000      0.300      0.000 
     166      0.000      0.000      0.300      0.000 
     167      0.000      0.000      0.300      0.000 
     168      0.000      0.000      0.300      0.000 
     169      0.000      0.000      0.300      0.000 
     170      0.000      0.000      0.300      0.000 
     171      0.000      0.000      0.300      0.000 
     172      0.000      0.000      0.300      0.000 
     173      0.000      0.000      0.300      0.000 
     174      0.000      0.000      0.300      0.000 
     175      0.000      0.000      0.300      0.000 
     176      0.000      0.000      0.300      0.000 
     177      0.000      0.000      0.300      0.000 
     178      1.000      0.546      0.450      0.000 
     179      0.000      0.000      0.300      0.000 
     180      0.000      0.000      0.000      0.000 
     181      0.000      0.000      0.300      0.000 
     182      0.000      0.000      0.300      0.000 
     183      0.000      0.000      0.300      0.000 
     184      0.000      0.000      0.300      0.000 
     185      0.000      0.000      0.300      0.000 
     186      0.000      0.000      0.300      0.000 
     187      0.000      0.000      0.300      0.000 
     188      0.000      0.000      0.300      0.000 
     189      0.000      0.000      0.300      0.000 
     190      0.000      0.000      0.300      0.000 
     191      0.000      0.000      0.300      0.000 
     192      0.000      0.000      0.300      0.000 
     193      0.000      0.000      0.300      0.000 
     194      0.000      0.000      0.300      0.000 
     195      0.000      0.000      0.300      0.000 
     196      0.000      0.000      0.300      0.000 
     197      0.000      0.000      0.300      0.000 
     198      0.000      0.000      0.300      0.000 
     199      0.000      0.000      0.300      0.000 
     200      0.000      0.000      0.300      0.000 
     201      0.000      0.000      0.300      0.000 
     202      0.000      0.000      0.300      0.000 
     203      0.000      0.000      0.300      0.000 
     204      0.000      0.000      0.300      0.000 
     205      0.000      0.000      0.300      0.000 
     206      0.000      0.000      0.300      0.000 

Improper Coeffs 

       1     10.500      -1       2 
       2      0.000      -1       2 
       3      0.000      -1       2 
       4      0.000      -1       2 
       5      0.000      -1       2 
       6      0.000      -1       2 
       7      0.000      -1       2 
       8      0.000      -1       2 
       9      0.000      -1       2 
      10      0.000      -1       2 
      11      0.000      -1       2 
      12      0.000      -1       2 
      13      0.000      -1       2 
      14      0.000      -1       2 
      15      0.000      -1       2 
      16      0.000      -1       2 
      17      0.000      -1       2 
      18      0.000      -1       2 
      19      0.000      -1       2 
      20      0.000      -1       2 
      21      0.000      -1       2 
      22      0.000      -1       2 
      23      0.000      -1       2 
      24      0.000      -1       2 
      25      0.000      -1       2 
      26      0.000      -1       2 
      27      0.000      -1       2 
      28      0.000      -1       2 
      29      0.000      -1       2 
      30      0.000      -1       2 
      31      0.000      -1       2 
      32      0.000      -1       2 
      33      0.000      -1       2 
      34      0.000      -1       2 
      35      0.000      -1       2 
      36      0.000      -1       2 
      37      0.000      -1       2 
      38      0.000      -1       2 
      39      0.000      -1       2 
      40      0.000      -1       2 
      41      0.000      -1       2 
      42      0.000      -1       2 
      43      0.000      -1       2 
      44      0.000      -1       2 
      45      0.000      -1       2 
      46      0.000      -1       2 
      47      0.000      -1       2 

Atoms 

     1      1      1 -0.23890000    1.000  1.00000  0.00000
     2      1      2 -0.17960000   -0.519  1.00000  0.00000
     3      1      3 -0.17890000   -1.067  1.00000  1.42397
     4      1      4 -0.17980000   -2.592  0.99820  1.42397
     5      1      5 -0.17980000   -3.131  1.00002  2.85063
     6      1      6 -0.17980000   -4.655  0.99642  2.85227
     7      1      7 -0.18000000   -5.188  0.99645  4.27892
     8      1      8 -0.18010000   -6.710  0.99105  4.27893
     9      1      9 -0.18000000   -7.242  0.98928  5.70497
    10      1     10 -0.18040000   -8.763  0.98209  5.70173
    11      1     11 -0.18030000   -9.296  0.98211  7.12617
    12      1     12 -0.18030000  -10.816  0.97311  7.12131
    13      1     13 -0.18020000  -11.348  0.97495  8.54649
    14      1     14 -0.18020000  -12.869  0.96415  8.54327
    15      1     15 -0.18020000  -13.399  0.96781  9.96936
    16      1     16 -0.18020000  -14.920  0.95883  9.97099
    17      1     17 -0.17980000  -15.447  0.96432 11.39926
    18      1     18 -0.18000000  -16.970  0.95357 11.40577
    19      1     19 -0.17930000  -17.502  0.95721 12.83402
    20      1     20 -0.17920000  -19.026  0.94460 12.83241
    21      1     21 -0.18000000  -19.579  0.94984 14.25445
    22      1     22 -0.17120000  -21.105  0.93526 14.23164
    23      1     23 -0.26060000  -21.685  0.93837 15.64202
    24      1     24 0.45960000  -23.196  0.92214 15.61783
    25      1     25 -0.39390000  -23.889  0.90818 14.61432
    26      1     26 -0.56050000  -23.727  0.92627 16.86405
    27      1     27 0.08070000    1.379  1.00130 -1.02635
    28      1     28 0.08070000    1.390  0.11135  0.50649
    29      1     29 0.08070000    1.390  1.88732  0.50870
    30      1     30 0.08850000   -0.881  0.11637 -0.53832
    31      1     31 0.08850000   -0.881  1.88366 -0.53834
    32      1     32 0.08960000   -0.701  1.88415  1.96016
    33      1     33 0.08960000   -0.699  0.11721  1.96095
    34      1     34 0.08960000   -2.962  0.11338  0.89150
    35      1     35 0.08960000   -2.965  1.88022  0.88852
    36      1     36 0.08970000   -2.763  1.88514  3.38387
    37      1     37 0.08970000   -2.760  0.11829  3.38736
    38      1     38 0.08990000   -5.024  0.11170  2.31954
    39      1     39 0.08990000   -5.029  1.87846  2.31793
    40      1     40 0.08990000   -4.821  1.88188  4.81230
    41      1     41 0.08990000   -4.815  0.11507  4.81468
    42      1     42 0.09010000   -7.078  0.10628  3.74504
    43      1     43 0.09010000   -7.085  1.87316  3.74487
    44      1     44 0.09010000   -6.876  1.87533  6.23832
    45      1     45 0.09010000   -6.869  0.10774  6.24013
    46      1     46 0.09020000   -9.130  0.09704  5.16780
    47      1     47 0.09020000   -9.136  1.86369  5.16629
    48      1     48 0.09010000   -8.931  1.86896  7.65882
    49      1     49 0.09010000   -8.920  0.10212  7.66269
    50      1     50 0.09040000  -11.181  0.08539  6.58910
    51      1     51 0.09040000  -11.191  1.85260  6.58301
    52      1     52 0.09010000  -10.984  1.86415  9.07595
    53      1     53 0.09010000  -10.970  0.09729  9.08428
    54      1     54 0.09050000  -13.232  0.07535  8.01312
    55      1     55 0.09050000  -13.245  1.84220  8.00391
    56      1     56 0.09000000  -13.032  1.85597 10.49781
    57      1     57 0.09000000  -13.022  0.08877 10.50641
    58      1     58 0.09070000  -15.286  0.07034  9.44154
    59      1     59 0.09070000  -15.296  1.83716  9.43192
    60      1     60 0.08980000  -15.079  1.85374 11.92492
    61      1     61 0.08980000  -15.067  0.08710 11.93631
    62      1     62 0.09140000  -17.334  0.06432 10.87630
    63      1     63 0.09140000  -17.347  1.83102 10.86631
    64      1     64 0.08970000  -17.138  1.84717 13.36119
    65      1     65 0.08970000  -17.124  0.07969 13.37214
    66      1     66 0.09400000  -19.384  0.05466 12.30004
    67      1     67 0.09400000  -19.399  1.82096 12.28792
    68      1     68 0.08850000  -19.223  1.84120 14.78527
    69      1     69 0.08850000  -19.205  0.07396 14.79863
    70      1     70 0.11110000  -21.456  0.04786 13.68936
    71      1     71 0.11110000  -21.472  1.80909 13.67869
    72      1     72 0.12150000  -21.358  1.83960 16.17284
    73      1     73 0.12150000  -21.340  0.05201 16.18534
    74      1     74 0.45070000  -23.058  0.93893 17.57243

Bonds 

     1      1      2      1
     2      2      3      2
     3      3      4      3
     4      4      5      4
     5      5      6      5
     6      6      7      6
     7      7      8      7
     8      8      9      8
     9      9     10      9
    10     10     11     10
    11     11     12     11
    12     12     13     12
    13     13     14     13
    14     14     15     14
    15     15     16     15
    16     16     17     16
    17     17     18     17
    18     18     19     18
    19     19     20     19
    20     20     21     20
    21     21     22     21
    22     22     23     22
    23     23     24     23
    24     24     25     24
    25     25     26     24
    26     26     27      1
    27     27     28      1
    28     28     29      1
    29     29     30      2
    30     30     31      2
    31     31     32      3
    32     32     33      3
    33     33     34      4
    34     34     35      4
    35     35     36      5
    36     36     37      5
    37     37     38      6
    38     38     39      6
    39     39     40      7
    40     40     41      7
    41     41     42      8
    42     42     43      8
    43     43     44      9
    44     44     45      9
    45     45     46     10
    46     46     47     10
    47     47     48     11
    48     48     49     11
    49     49     50     12
    50     50     51     12
    51     51     52     13
    52     52     53     13
    53     53     54     14
    54     54     55     14
    55     55     56     15
    56     56     57     15
    57     57     58     16
    58     58     59     16
    59     59     60     17
    60     60     61     17
    61     61     62     18
    62     62     63     18
    63     63     64     19
    64     64     65     19
    65     65     66     20
    66     66     67     20
    67     67     68     21
    68     68     69     21
    69     69     70     22
    70     70     71     22
    71     71     72     23
    72     72     73     23
    73     73     74     26

Angles 

     1      1      1      2      3
     2      2      2      3      4
     3      3      3      4      5
     4      4      4      5      6
     5      5      5      6      7
     6      6      6      7      8
     7      7      7      8      9
     8      8      8      9     10
     9      9      9     10     11
    10     10     10     11     12
    11     11     11     12     13
    12     12     12     13     14
    13     13     13     14     15
    14     14     14     15     16
    15     15     15     16     17
    16     16     16     17     18
    17     17     17     18     19
    18     18     18     19     20
    19     19     19     20     21
    20     20     20     21     22
    21     21     21     22     23
    22     22     22     23     24
    23     23     23     24     25
    24     24     23     24     26
    25     25      2      1     27
    26     26      2      1     28
    27     27      2      1     29
    28     28      1      2     30
    29     29      1      2     31
    30     30      2      3     32
    31     31      2      3     33
    32     32      3      4     34
    33     33      3      4     35
    34     34      4      5     36
    35     35      4      5     37
    36     36      5      6     38
    37     37      5      6     39
    38     38      6      7     40
    39     39      6      7     41
    40     40      7      8     42
    41     41      7      8     43
    42     42      8      9     44
    43     43      8      9     45
    44     44      9     10     46
    45     45      9     10     47
    46     46     10     11     48
    47     47     10     11     49
    48     48     11     12     50
    49     49     11     12     51
    50     50     12     13     52
    51     51     12     13     53
    52     52     13     14     54
    53     53     13     14     55
    54     54     14     15     56
    55     55     14     15     57
    56     56     15     16     58
    57     57     15     16     59
    58     58     16     17     60
    59     59     16     17     61
    60     60     17     18     62
    61     61     17     18     63
    62     62     18     19     64
    63     63     18     19     65
    64     64     19     20     66
    65     65     19     20     67
    66     66     20     21     68
    67     67     20     21     69
    68     68     21     22     70
    69     69     21     22     71
    70     70     22     23     72
    71     71     22     23     73
    72     72     24     26     74
    73     73     56     15     57
    74     74     14     13     53
    75     75     62     18     63
    76     76     50     12     51
    77     77     13     12     50
    78     78     27      1     29
    79     79     23     22     71
    80     80     17     16     58
    81     81     36      5     37
    82     82     25     24     26
    83     83      5      4     35
    84     84      3      2     31
    85     85      9      8     42
    86     86     68     21     69
    87     87     21     20     67
    88     88     20     19     64
    89     89      9      8     43
    90     90     15     14     55
    91     91     24     23     72
    92     92      7      6     38
    93     93     17     16     59
    94     94     18     17     61
    95     95     28      1     29
    96     96     22     21     69
    97     97     19     18     63
    98     98     44      9     45
    99     99     11     10     46
   100    100      8      7     41
   101    101      4      3     32
   102    102     18     17     60
   103    103     20     19     65
   104    104     10      9     44
   105    105     64     19     65
   106    106     21     20     66
   107    107     10      9     45
   108    108     70     22     71
   109    109      4      3     33
   110    110     24     23     73
   111    111     54     14     55
   112    112     15     14     54
   113    113     32      3     33
   114    114     66     20     67
   115    115     40      7     41
   116    116     12     11     49
   117    117     16     15     57
   118    118      7      6     39
   119    119     58     16     59
   120    120     14     13     52
   121    121     19     18     62
   122    122      6      5     36
   123    123     48     11     49
   124    124     46     10     47
   125    125     27      1     28
   126    126     30      2     31
   127    127     16     15     56
   128    128      8      7     40
   129    129     42      8     43
   130    130     60     17     61
   131    131     13     12     51
   132    132     52     13     53
   133    133     12     11     48
   134    134     23     22     70
   135    135     72     23     73
   136    136      3      2     30
   137    137     11     10     47
   138    138     34      4     35
   139    139      6      5     37
   140    140     22     21     68
   141    141      5      4     34
   142    142     38      6     39

Dihedrals

     1      1      4      3      2      1 
     2      2      5      4      3      2 
     3      3      6      5      4      3 
     4      4      7      6      5      4 
     5      5      8      7      6      5 
     6      6      9      8      7      6 
     7      7     10      9      8      7 
     8      8     11     10      9      8 
     9      9     12     11     10      9 
    10     10     13     12     11     10 
    11     11     14     13     12     11 
    12     12     15     14     13     12 
    13     13     16     15     14     13 
    14     14     17     16     15     14 
    15     15     18     17     16     15 
    16     16     19     18     17     16 
    17     17     20     19     18     17 
    18     18     21     20     19     18 
    19     19     22     21     20     19 
    20     20     23     22     21     20 
    21     21     24     23     22     21 
    22     22     25     24     23     22 
    23     23     27      1      2      3 
    24     24     74     26     24     23 
    25     25     32      3      2     31 
    26     26     39      6      5      4 
    27     27     36      5      6      7 
    28     28     73     23     24     25 
    29     29     63     18     17     16 
    30     30     60     17     18     19 
    31     31     55     14     13     12 
    32     32     44      9      8      7 
    33     33     65     19     18     63 
    34     34     52     13     12     11 
    35     35     56     15     16     17 
    36     36     42      8      9     10 
    37     37     45      9      8     43 
    38     38     47     10      9     44 
    39     39     72     23     22     21 
    40     40     60     17     16     15 
    41     41     63     18     19     20 
    42     42     73     23     22     71 
    43     43     68     21     22     23 
    44     44     50     12     11     10 
    45     45     73     23     24     26 
    46     46     34      4      3      2 
    47     47     58     16     15     14 
    48     48     37      5      4     35 
    49     49     42      8      7     40 
    50     50     67     20     21     22 
    51     51     49     11     10      9 
    52     52     59     16     15     14 
    53     53     52     13     14     15 
    54     54     39      6      5     36 
    55     55     66     20     19     18 
    56     56     42      8      7      6 
    57     57     66     20     21     22 
    58     58     31      2      1     29 
    59     59     58     16     15     56 
    60     60     72     23     22     70 
    61     61     64     19     18     17 
    62     62     35      4      3      2 
    63     63     69     21     20     19 
    64     64     67     20     19     18 
    65     65     32      3      4      5 
    66     66     50     12     11     48 
    67     67     53     13     14     15 
    68     68     53     13     12     51 
    69     69     68     21     20     67 
    70     70     69     21     20     66 
    71     71     30      2      1     27 
    72     72     66     20     19     64 
    73     73     37      5      4      3 
    74     74     43      8      7     41 
    75     75     44      9     10     11 
    76     76     47     10      9      8 
    77     77     38      6      5     36 
    78     78     51     12     11     48 
    79     79     45      9      8      7 
    80     80     58     16     15     57 
    81     81     59     16     15     56 
    82     82     40      7      6     38 
    83     83     69     21     20     67 
    84     84     48     11     10     46 
    85     85     50     12     13     14 
    86     86     53     13     12     11 
    87     87     33      3      2      1 
    88     88     31      2      1     27 
    89     89     30      2      1     28 
    90     90     43      8      9     10 
    91     91     41      7      6     39 
    92     92     59     16     15     57 
    93     93     36      5      4      3 
    94     94     55     14     13     53 
    95     95     62     18     17     61 
    96     96     30      2      3      4 
    97     97     29      1      2      3 
    98     98     46     10      9     45 
    99     99     61     17     16     59 
   100    100     45      9     10     11 
   101    101     51     12     11     49 
   102    102     36      5      4     35 
   103    103     70     22     21     68 
   104    104     60     17     16     59 
   105    105     61     17     16     58 
   106    106     55     14     15     16 
   107    107     68     21     20     66 
   108    108     62     18     17     16 
   109    109     65     19     20     21 
   110    110     62     18     19     20 
   111    111     68     21     20     19 
   112    112     54     14     13     12 
   113    113     65     19     18     17 
   114    114     61     17     18     19 
   115    115     71     22     21     68 
   116    116     38      6      5      4 
   117    117     70     22     21     69 
   118    118     70     22     23     24 
   119    119     54     14     13     53 
   120    120     48     11     10     47 
   121    121     71     22     23     24 
   122    122     71     22     21     69 
   123    123     37      5      4     34 
   124    124     28      1      2      3 
   125    125     51     12     11     10 
   126    126     54     14     15     16 
   127    127     32      3      2     30 
   128    128     67     20     19     64 
   129    129     66     20     19     65 
   130    130     40      7      6     39 
   131    131     41      7      6     38 
   132    132     43      8      7      6 
   133    133     47     10      9     45 
   134    134     40      7      8      9 
   135    135     73     23     22     21 
   136    136     72     23     24     25 
   137    137     46     10      9     44 
   138    138     42      8      7     41 
   139    139     43      8      7     40 
   140    140     52     13     12     51 
   141    141     46     10     11     12 
   142    142     35      4      5      6 
   143    143     67     20     19     65 
   144    144     57     15     14     55 
   145    145     51     12     13     14 
   146    146     47     10     11     12 
   147    147     72     23     22     71 
   148    148     57     15     16     17 
   149    149     38      6      7      8 
   150    150     53     13     12     50 
   151    151     59     16     17     18 
   152    152     41      7      8      9 
   153    153     35      4      3     32 
   154    154     34      4      3     33 
   155    155     50     12     11     49 
   156    156     34      4      3     32 
   157    157     48     11     12     13 
   158    158     49     11     10     46 
   159    159     39      6      5     37 
   160    160     45      9      8     42 
   161    161     74     26     24     25 
   162    162     49     11     12     13 
   163    163     57     15     14     13 
   164    164     57     15     14     54 
   165    165     32      3      2      1 
   166    166     56     15     14     54 
   167    167     44      9      8     43 
   168    168     71     22     21     20 
   169    169     35      4      3     33 
   170    170     56     15     14     55 
   171    171     64     19     18     63 
   172    172     39      6      7      8 
   173    173     55     14     13     52 
   174    174     69     21     22     23 
   175    175     38      6      5     37 
   176    176     33      3      2     30 
   177    177     65     19     18     62 
   178    178     26     24     23     22 
   179    179     44      9      8     42 
   180    180     72     23     24     26 
   181    181     34      4      5      6 
   182    182     56     15     14     13 
   183    183     36      5      4     34 
   184    184     70     22     21     20 
   185    185     48     11     10      9 
   186    186     30      2      1     29 
   187    187     31      2      1     28 
   188    188     31      2      3      4 
   189    189     64     19     20     21 
   190    190     62     18     17     60 
   191    191     41      7      6      5 
   192    192     61     17     16     15 
   193    193     58     16     17     18 
   194    194     40      7      6      5 
   195    195     63     18     17     60 
   196    196     33      3      2     31 
   197    197     46     10      9      8 
   198    198     52     13     12     50 
   199    199     64     19     18     62 
   200    200     60     17     16     58 
   201    201     63     18     17     61 
   202    202     33      3      4      5 
   203    203     54     14     13     52 
   204    204     49     11     10     47 
   205    205     73     23     22     70 
   206    206     37      5      6      7 

Impropers

     1      1     24     25     26     23 
     2      2      1      2     27     28 
     3      3      1      2     27     29 
     4      4      2      1      3     30 
     5      5      2      1      3     31 
     6      6      3      2      4     32 
     7      7      3     33      2      4 
     8      8      4     34      3      5 
     9      9      4     35      5      3 
    10     10      5      4     36      6 
    11     11      5      4     37      6 
    12     12      6      5     38      7 
    13     13      6      7      5     39 
    14     14      7      8      6     40 
    15     15      7     41      6      8 
    16     16      8      9     42      7 
    17     17      8      9     43      7 
    18     18      9     10     44      8 
    19     19      9     10     45      8 
    20     20     10      9     11     46 
    21     21     10      9     11     47 
    22     22     11     10     12     48 
    23     23     11     49     10     12 
    24     24     12     50     11     13 
    25     25     12     51     13     11 
    26     26     13     12     52     14 
    27     27     13     12     53     14 
    28     28     14     13     54     15 
    29     29     14     15     13     55 
    30     30     15     16     14     56 
    31     31     15     57     14     16 
    32     32     16     17     58     15 
    33     33     16     17     59     15 
    34     34     17     18     60     16 
    35     35     17     18     61     16 
    36     36     18     17     19     62 
    37     37     18     17     19     63 
    38     38     19     18     20     64 
    39     39     19     65     18     20 
    40     40     20     66     19     21 
    41     41     20     67     21     19 
    42     42     21     20     68     22 
    43     43     21     20     69     22 
    44     44     22     21     70     23 
    45     45     22     23     21     71 
    46     46     23     24     22     72 
    47     47     23     73     22     24 

