LAMMPS data file Created by LigParGen - (Written by Leela S. Dodda)

      73 atoms
      72 bonds
     141 angles
     204 dihedrals
      47 impropers
 
      73 atom types
      72 bond types
     141 angle types
     204 dihedral types
      47 improper types
 
  -23.840810    26.159190 xlo xhi
    0.111690    50.111690 ylo yhi
   -1.026240    48.973760 zlo zhi

Masses

       1     12.011  
       2     12.011  
       3     12.011  
       4     12.011  
       5     12.011  
       6     12.011  
       7     12.011  
       8     12.011  
       9     12.011  
      10     12.011  
      11     12.011  
      12     12.011  
      13     12.011  
      14     12.011  
      15     12.011  
      16     12.011  
      17     12.011  
      18     12.011  
      19     12.011  
      20     12.011  
      21     12.011  
      22     12.011  
      23     12.011  
      24     12.011  
      25     15.999  
      26     15.999  
      27      1.008  
      28      1.008  
      29      1.008  
      30      1.008  
      31      1.008  
      32      1.008  
      33      1.008  
      34      1.008  
      35      1.008  
      36      1.008  
      37      1.008  
      38      1.008  
      39      1.008  
      40      1.008  
      41      1.008  
      42      1.008  
      43      1.008  
      44      1.008  
      45      1.008  
      46      1.008  
      47      1.008  
      48      1.008  
      49      1.008  
      50      1.008  
      51      1.008  
      52      1.008  
      53      1.008  
      54      1.008  
      55      1.008  
      56      1.008  
      57      1.008  
      58      1.008  
      59      1.008  
      60      1.008  
      61      1.008  
      62      1.008  
      63      1.008  
      64      1.008  
      65      1.008  
      66      1.008  
      67      1.008  
      68      1.008  
      69      1.008  
      70      1.008  
      71      1.008  
      72      1.008  
      73      1.008  

Pair Coeffs 

       1      0.066  3.5000000 
       2      0.066  3.5000000 
       3      0.066  3.5000000 
       4      0.066  3.5000000 
       5      0.066  3.5000000 
       6      0.066  3.5000000 
       7      0.066  3.5000000 
       8      0.066  3.5000000 
       9      0.066  3.5000000 
      10      0.066  3.5000000 
      11      0.066  3.5000000 
      12      0.066  3.5000000 
      13      0.066  3.5000000 
      14      0.066  3.5000000 
      15      0.066  3.5000000 
      16      0.066  3.5000000 
      17      0.066  3.5000000 
      18      0.066  3.5000000 
      19      0.066  3.5000000 
      20      0.066  3.5000000 
      21      0.066  3.5000000 
      22      0.066  3.5000000 
      23      0.066  3.5000000 
      24      0.070  3.5500000 
      25      0.210  2.9600000 
      26      0.210  2.9600000 
      27      0.030  2.5000000 
      28      0.030  2.5000000 
      29      0.030  2.5000000 
      30      0.030  2.5000000 
      31      0.030  2.5000000 
      32      0.030  2.5000000 
      33      0.030  2.5000000 
      34      0.030  2.5000000 
      35      0.030  2.5000000 
      36      0.030  2.5000000 
      37      0.030  2.5000000 
      38      0.030  2.5000000 
      39      0.030  2.5000000 
      40      0.030  2.5000000 
      41      0.030  2.5000000 
      42      0.030  2.5000000 
      43      0.030  2.5000000 
      44      0.030  2.5000000 
      45      0.030  2.5000000 
      46      0.030  2.5000000 
      47      0.030  2.5000000 
      48      0.030  2.5000000 
      49      0.030  2.5000000 
      50      0.030  2.5000000 
      51      0.030  2.5000000 
      52      0.030  2.5000000 
      53      0.030  2.5000000 
      54      0.030  2.5000000 
      55      0.030  2.5000000 
      56      0.030  2.5000000 
      57      0.030  2.5000000 
      58      0.030  2.5000000 
      59      0.030  2.5000000 
      60      0.030  2.5000000 
      61      0.030  2.5000000 
      62      0.030  2.5000000 
      63      0.030  2.5000000 
      64      0.030  2.5000000 
      65      0.030  2.5000000 
      66      0.030  2.5000000 
      67      0.030  2.5000000 
      68      0.030  2.5000000 
      69      0.030  2.5000000 
      70      0.030  2.5000000 
      71      0.030  2.5000000 
      72      0.030  2.5000000 
      73      0.030  2.5000000 

Bond Coeffs 

       1   268.0000     1.5290 
       2   268.0000     1.5290 
       3   268.0000     1.5290 
       4   268.0000     1.5290 
       5   268.0000     1.5290 
       6   268.0000     1.5290 
       7   268.0000     1.5290 
       8   268.0000     1.5290 
       9   268.0000     1.5290 
      10   268.0000     1.5290 
      11   268.0000     1.5290 
      12   268.0000     1.5290 
      13   268.0000     1.5290 
      14   268.0000     1.5290 
      15   268.0000     1.5290 
      16   268.0000     1.5290 
      17   268.0000     1.5290 
      18   268.0000     1.5290 
      19   268.0000     1.5290 
      20   268.0000     1.5290 
      21   268.0000     1.5290 
      22   268.0000     1.5290 
      23   317.0000     1.5220 
      24   656.0000     1.2500 
      25   656.0000     1.2500 
      26   340.0000     1.0900 
      27   340.0000     1.0900 
      28   340.0000     1.0900 
      29   340.0000     1.0900 
      30   340.0000     1.0900 
      31   340.0000     1.0900 
      32   340.0000     1.0900 
      33   340.0000     1.0900 
      34   340.0000     1.0900 
      35   340.0000     1.0900 
      36   340.0000     1.0900 
      37   340.0000     1.0900 
      38   340.0000     1.0900 
      39   340.0000     1.0900 
      40   340.0000     1.0900 
      41   340.0000     1.0900 
      42   340.0000     1.0900 
      43   340.0000     1.0900 
      44   340.0000     1.0900 
      45   340.0000     1.0900 
      46   340.0000     1.0900 
      47   340.0000     1.0900 
      48   340.0000     1.0900 
      49   340.0000     1.0900 
      50   340.0000     1.0900 
      51   340.0000     1.0900 
      52   340.0000     1.0900 
      53   340.0000     1.0900 
      54   340.0000     1.0900 
      55   340.0000     1.0900 
      56   340.0000     1.0900 
      57   340.0000     1.0900 
      58   340.0000     1.0900 
      59   340.0000     1.0900 
      60   340.0000     1.0900 
      61   340.0000     1.0900 
      62   340.0000     1.0900 
      63   340.0000     1.0900 
      64   340.0000     1.0900 
      65   340.0000     1.0900 
      66   340.0000     1.0900 
      67   340.0000     1.0900 
      68   340.0000     1.0900 
      69   340.0000     1.0900 
      70   340.0000     1.0900 
      71   340.0000     1.0900 
      72   340.0000     1.0900 

Angle Coeffs 

       1     58.350    112.700
       2     58.350    112.700
       3     58.350    112.700
       4     58.350    112.700
       5     58.350    112.700
       6     58.350    112.700
       7     58.350    112.700
       8     58.350    112.700
       9     58.350    112.700
      10     58.350    112.700
      11     58.350    112.700
      12     58.350    112.700
      13     58.350    112.700
      14     58.350    112.700
      15     58.350    112.700
      16     58.350    112.700
      17     58.350    112.700
      18     58.350    112.700
      19     58.350    112.700
      20     58.350    112.700
      21     58.350    112.700
      22     63.000    111.100
      23     70.000    117.000
      24     70.000    117.000
      25     37.500    110.700
      26     37.500    110.700
      27     37.500    110.700
      28     37.500    110.700
      29     37.500    110.700
      30     37.500    110.700
      31     37.500    110.700
      32     37.500    110.700
      33     37.500    110.700
      34     37.500    110.700
      35     37.500    110.700
      36     37.500    110.700
      37     37.500    110.700
      38     37.500    110.700
      39     37.500    110.700
      40     37.500    110.700
      41     37.500    110.700
      42     37.500    110.700
      43     37.500    110.700
      44     37.500    110.700
      45     37.500    110.700
      46     37.500    110.700
      47     37.500    110.700
      48     37.500    110.700
      49     37.500    110.700
      50     37.500    110.700
      51     37.500    110.700
      52     37.500    110.700
      53     37.500    110.700
      54     37.500    110.700
      55     37.500    110.700
      56     37.500    110.700
      57     37.500    110.700
      58     37.500    110.700
      59     37.500    110.700
      60     37.500    110.700
      61     37.500    110.700
      62     37.500    110.700
      63     37.500    110.700
      64     37.500    110.700
      65     37.500    110.700
      66     37.500    110.700
      67     37.500    110.700
      68     37.500    110.700
      69     37.500    110.700
      70     37.500    110.700
      71     37.500    110.700
      72     33.000    107.800
      73     37.500    110.700
      74     33.000    107.800
      75     33.000    107.800
      76     37.500    110.700
      77     33.000    107.800
      78     37.500    110.700
      79     37.500    110.700
      80     33.000    107.800
      81     80.000    126.000
      82     37.500    110.700
      83     37.500    110.700
      84     37.500    110.700
      85     33.000    107.800
      86     37.500    110.700
      87     37.500    110.700
      88     37.500    110.700
      89     37.500    110.700
      90     35.000    109.500
      91     37.500    110.700
      92     37.500    110.700
      93     37.500    110.700
      94     33.000    107.800
      95     37.500    110.700
      96     37.500    110.700
      97     33.000    107.800
      98     37.500    110.700
      99     37.500    110.700
     100     37.500    110.700
     101     37.500    110.700
     102     37.500    110.700
     103     37.500    110.700
     104     33.000    107.800
     105     37.500    110.700
     106     37.500    110.700
     107     33.000    107.800
     108     37.500    110.700
     109     35.000    109.500
     110     33.000    107.800
     111     37.500    110.700
     112     33.000    107.800
     113     33.000    107.800
     114     33.000    107.800
     115     37.500    110.700
     116     37.500    110.700
     117     37.500    110.700
     118     33.000    107.800
     119     37.500    110.700
     120     37.500    110.700
     121     37.500    110.700
     122     33.000    107.800
     123     33.000    107.800
     124     33.000    107.800
     125     33.000    107.800
     126     37.500    110.700
     127     37.500    110.700
     128     33.000    107.800
     129     33.000    107.800
     130     37.500    110.700
     131     33.000    107.800
     132     37.500    110.700
     133     37.500    110.700
     134     33.000    107.800
     135     37.500    110.700
     136     37.500    110.700
     137     33.000    107.800
     138     37.500    110.700
     139     37.500    110.700
     140     37.500    110.700
     141     33.000    107.800

Dihedral Coeffs  

       1      1.300     -0.200      0.200      0.000 
       2      1.300     -0.200      0.200      0.000 
       3      1.300     -0.200      0.200      0.000 
       4      1.300     -0.200      0.200      0.000 
       5      1.300     -0.200      0.200      0.000 
       6      1.300     -0.200      0.200      0.000 
       7      1.300     -0.200      0.200      0.000 
       8      1.300     -0.200      0.200      0.000 
       9      1.300     -0.200      0.200      0.000 
      10      1.300     -0.200      0.200      0.000 
      11      1.300     -0.200      0.200      0.000 
      12      1.300     -0.200      0.200      0.000 
      13      1.300     -0.200      0.200      0.000 
      14      1.300     -0.200      0.200      0.000 
      15      1.300     -0.200      0.200      0.000 
      16      1.300     -0.200      0.200      0.000 
      17      1.300     -0.200      0.200      0.000 
      18      1.300     -0.200      0.200      0.000 
      19      1.300     -0.200      0.200      0.000 
      20      1.300     -0.200      0.200      0.000 
      21     -2.060     -0.313      0.315      0.000 
      22      0.000      0.000      0.000      0.000 
      23      0.000      0.000      0.300      0.000 
      24      0.000      0.000      0.300      0.000 
      25      0.000      0.000      0.300      0.000 
      26      0.000      0.000      0.300      0.000 
      27      0.000      0.000      0.000      0.000 
      28      0.000      0.000      0.300      0.000 
      29      0.000      0.000      0.300      0.000 
      30      0.000      0.000      0.300      0.000 
      31      0.000      0.000      0.300      0.000 
      32      0.000      0.000      0.300      0.000 
      33      0.000      0.000      0.300      0.000 
      34      0.000      0.000      0.300      0.000 
      35      0.000      0.000      0.300      0.000 
      36      0.000      0.000      0.300      0.000 
      37      0.000      0.000      0.300      0.000 
      38      0.000      0.000      0.300      0.000 
      39      0.000      0.000      0.300      0.000 
      40      0.000      0.000      0.300      0.000 
      41      0.000      0.000      0.300      0.000 
      42      0.000      0.000      0.300      0.000 
      43      0.000      0.000      0.300      0.000 
      44      0.000      0.000      0.000      0.000 
      45      0.000      0.000      0.300      0.000 
      46      0.000      0.000      0.300      0.000 
      47      0.000      0.000      0.300      0.000 
      48      0.000      0.000      0.300      0.000 
      49      0.000      0.000      0.300      0.000 
      50      0.000      0.000      0.300      0.000 
      51      0.000      0.000      0.300      0.000 
      52      0.000      0.000      0.300      0.000 
      53      0.000      0.000      0.300      0.000 
      54      0.000      0.000      0.300      0.000 
      55      0.000      0.000      0.300      0.000 
      56      0.000      0.000      0.300      0.000 
      57      0.000      0.000      0.300      0.000 
      58      0.000      0.000      0.300      0.000 
      59      0.000      0.000      0.300      0.000 
      60      0.000      0.000      0.300      0.000 
      61      0.000      0.000      0.300      0.000 
      62      0.000      0.000      0.300      0.000 
      63      0.000      0.000      0.300      0.000 
      64      0.000      0.000      0.300      0.000 
      65      0.000      0.000      0.300      0.000 
      66      0.000      0.000      0.300      0.000 
      67      0.000      0.000      0.300      0.000 
      68      0.000      0.000      0.300      0.000 
      69      0.000      0.000      0.300      0.000 
      70      0.000      0.000      0.300      0.000 
      71      0.000      0.000      0.300      0.000 
      72      0.000      0.000      0.300      0.000 
      73      0.000      0.000      0.300      0.000 
      74      0.000      0.000      0.300      0.000 
      75      0.000      0.000      0.300      0.000 
      76      0.000      0.000      0.300      0.000 
      77      0.000      0.000      0.300      0.000 
      78      0.000      0.000      0.300      0.000 
      79      0.000      0.000      0.300      0.000 
      80      0.000      0.000      0.300      0.000 
      81      0.000      0.000      0.300      0.000 
      82      0.000      0.000      0.300      0.000 
      83      0.000      0.000      0.300      0.000 
      84      0.000      0.000      0.300      0.000 
      85      0.000      0.000      0.300      0.000 
      86      0.000      0.000      0.300      0.000 
      87      0.000      0.000      0.300      0.000 
      88      0.000      0.000      0.300      0.000 
      89      0.000      0.000      0.300      0.000 
      90      0.000      0.000      0.300      0.000 
      91      0.000      0.000      0.300      0.000 
      92      0.000      0.000      0.300      0.000 
      93      0.000      0.000      0.300      0.000 
      94      0.000      0.000      0.300      0.000 
      95      0.000      0.000      0.300      0.000 
      96      0.000      0.000      0.300      0.000 
      97      0.000      0.000      0.300      0.000 
      98      0.000      0.000      0.300      0.000 
      99      0.000      0.000      0.300      0.000 
     100      0.000      0.000      0.300      0.000 
     101      0.000      0.000      0.300      0.000 
     102      0.000      0.000      0.300      0.000 
     103      0.000      0.000      0.300      0.000 
     104      0.000      0.000      0.300      0.000 
     105      0.000      0.000      0.300      0.000 
     106      0.000      0.000      0.300      0.000 
     107      0.000      0.000      0.300      0.000 
     108      0.000      0.000      0.300      0.000 
     109      0.000      0.000      0.300      0.000 
     110      0.000      0.000      0.300      0.000 
     111      0.000      0.000      0.300      0.000 
     112      0.000      0.000      0.300      0.000 
     113      0.000      0.000      0.300      0.000 
     114      0.000      0.000      0.300      0.000 
     115      0.000      0.000      0.300      0.000 
     116      0.000      0.000     -0.100      0.000 
     117      0.000      0.000      0.300      0.000 
     118      0.000      0.000      0.300      0.000 
     119      0.000      0.000     -0.100      0.000 
     120      0.000      0.000      0.300      0.000 
     121      0.000      0.000      0.300      0.000 
     122      0.000      0.000      0.300      0.000 
     123      0.000      0.000      0.300      0.000 
     124      0.000      0.000      0.300      0.000 
     125      0.000      0.000      0.300      0.000 
     126      0.000      0.000      0.300      0.000 
     127      0.000      0.000      0.300      0.000 
     128      0.000      0.000      0.300      0.000 
     129      0.000      0.000      0.300      0.000 
     130      0.000      0.000      0.300      0.000 
     131      0.000      0.000      0.300      0.000 
     132      0.000      0.000      0.300      0.000 
     133      0.000      0.000      0.300      0.000 
     134      0.000      0.000      0.000      0.000 
     135      0.000      0.000      0.300      0.000 
     136      0.000      0.000      0.300      0.000 
     137      0.000      0.000      0.300      0.000 
     138      0.000      0.000      0.300      0.000 
     139      0.000      0.000      0.300      0.000 
     140      0.000      0.000      0.300      0.000 
     141      0.000      0.000      0.300      0.000 
     142      0.000      0.000      0.300      0.000 
     143      0.000      0.000      0.300      0.000 
     144      0.000      0.000      0.300      0.000 
     145      0.000      0.000      0.300      0.000 
     146      0.000      0.000      0.300      0.000 
     147      0.000      0.000      0.300      0.000 
     148      0.000      0.000      0.300      0.000 
     149      0.000      0.000      0.300      0.000 
     150      0.000      0.000      0.300      0.000 
     151      0.000      0.000      0.300      0.000 
     152      0.000      0.000      0.300      0.000 
     153      0.000      0.000      0.300      0.000 
     154      0.000      0.000      0.300      0.000 
     155      0.000      0.000      0.300      0.000 
     156      0.000      0.000      0.300      0.000 
     157      0.000      0.000      0.300      0.000 
     158      0.000      0.000      0.300      0.000 
     159      0.000      0.000      0.300      0.000 
     160      0.000      0.000      0.300      0.000 
     161      0.000      0.000      0.300      0.000 
     162      0.000      0.000      0.300      0.000 
     163      0.000      0.000      0.300      0.000 
     164      0.000      0.000      0.300      0.000 
     165      0.000      0.000      0.300      0.000 
     166      0.000      0.000      0.300      0.000 
     167      0.000      0.000      0.300      0.000 
     168      0.000      0.000      0.300      0.000 
     169      0.000      0.000      0.300      0.000 
     170      0.000      0.000      0.300      0.000 
     171      0.000      0.000      0.300      0.000 
     172      0.000      0.000      0.300      0.000 
     173      0.000      0.000      0.300      0.000 
     174      0.000      0.000      0.300      0.000 
     175      0.000      0.000      0.300      0.000 
     176      0.000      0.000      0.000      0.000 
     177      0.000      0.000      0.300      0.000 
     178      0.000      0.000      0.000      0.000 
     179      0.000      0.000      0.300      0.000 
     180      0.000      0.000      0.300      0.000 
     181      0.000      0.000      0.300      0.000 
     182      0.000      0.000      0.300      0.000 
     183      0.000      0.000      0.300      0.000 
     184      0.000      0.000      0.300      0.000 
     185      0.000      0.000      0.300      0.000 
     186      0.000      0.000      0.300      0.000 
     187      0.000      0.000      0.300      0.000 
     188      0.000      0.000      0.300      0.000 
     189      0.000      0.000      0.300      0.000 
     190      0.000      0.000      0.300      0.000 
     191      0.000      0.000      0.300      0.000 
     192      0.000      0.000      0.300      0.000 
     193      0.000      0.000      0.300      0.000 
     194      0.000      0.000      0.300      0.000 
     195      0.000      0.000      0.300      0.000 
     196      0.000      0.000      0.300      0.000 
     197      0.000      0.000      0.300      0.000 
     198      0.000      0.000      0.300      0.000 
     199      0.000      0.000      0.300      0.000 
     200      0.000      0.000      0.300      0.000 
     201      0.000      0.000      0.300      0.000 
     202      0.000      0.000      0.300      0.000 
     203      0.000      0.000      0.300      0.000 
     204      0.000      0.000      0.300      0.000 

Improper Coeffs 

       1     10.500      -1       2 
       2      0.000      -1       2 
       3      0.000      -1       2 
       4      0.000      -1       2 
       5      0.000      -1       2 
       6      0.000      -1       2 
       7      0.000      -1       2 
       8      0.000      -1       2 
       9      0.000      -1       2 
      10      0.000      -1       2 
      11      0.000      -1       2 
      12      0.000      -1       2 
      13      0.000      -1       2 
      14      0.000      -1       2 
      15      0.000      -1       2 
      16      0.000      -1       2 
      17      0.000      -1       2 
      18      0.000      -1       2 
      19      0.000      -1       2 
      20      0.000      -1       2 
      21      0.000      -1       2 
      22      0.000      -1       2 
      23      0.000      -1       2 
      24      0.000      -1       2 
      25      0.000      -1       2 
      26      0.000      -1       2 
      27      0.000      -1       2 
      28      0.000      -1       2 
      29      0.000      -1       2 
      30      0.000      -1       2 
      31      0.000      -1       2 
      32      0.000      -1       2 
      33      0.000      -1       2 
      34      0.000      -1       2 
      35      0.000      -1       2 
      36      0.000      -1       2 
      37      0.000      -1       2 
      38      0.000      -1       2 
      39      0.000      -1       2 
      40      0.000      -1       2 
      41      0.000      -1       2 
      42      0.000      -1       2 
      43      0.000      -1       2 
      44      0.000      -1       2 
      45      0.000      -1       2 
      46      0.000      -1       2 
      47      0.000      -1       2 

Atoms 

     1      1      1 -0.20930000    1.000  1.00000  0.00000
     2      1      2 -0.15780000   -0.519  1.00000  0.00000
     3      1      3 -0.15690000   -1.069  1.00000  1.42297
     4      1      4 -0.15780000   -2.595  1.00180  1.41970
     5      1      5 -0.15780000   -3.136  1.00359  2.84483
     6      1      6 -0.15780000   -4.660  1.00719  2.84319
     7      1      7 -0.15790000   -5.195  1.00717  4.26905
     8      1      8 -0.15810000   -6.717  1.00896  4.26741
     9      1      9 -0.15810000   -7.250  1.01074  5.69265
    10      1     10 -0.15830000   -8.772  1.01433  5.68777
    11      1     11 -0.15810000   -9.304  1.01791  7.11232
    12      1     12 -0.15820000  -10.825  1.01969  7.10582
    13      1     13 -0.15830000  -11.358  1.02507  8.53026
    14      1     14 -0.15850000  -12.879  1.02867  8.52538
    15      1     15 -0.15820000  -13.411  1.03586  9.95177
    16      1     16 -0.15820000  -14.933  1.04127  9.95012
    17      1     17 -0.15810000  -15.463  1.04665 11.37656
    18      1     18 -0.15870000  -16.985  1.05027 11.37816
    19      1     19 -0.15810000  -17.521  1.05747 12.80589
    20      1     20 -0.15770000  -19.044  1.06287 12.80098
    21      1     21 -0.16140000  -19.595  1.06831 14.22356
    22      1     22 -0.13590000  -21.121  1.07188 14.20559
    23      1     23 -0.23340000  -21.692  1.07911 15.61596
    24      1     24 0.42840000  -23.221  1.08130 15.68608
    25      1     25 -0.63120000  -23.841  1.07697 14.58884
    26      1     26 -0.63120000  -23.680  1.08879 16.86432
    27      1     27 0.07020000    1.378  1.00130 -1.02624
    28      1     28 0.07020000    1.389  0.11169  0.50765
    29      1     29 0.07020000    1.389  1.88774  0.50895
    30      1     30 0.07740000   -0.881  0.11703 -0.53934
    31      1     31 0.07740000   -0.881  1.88311 -0.53942
    32      1     32 0.07850000   -0.702  1.88256  1.96137
    33      1     33 0.07850000   -0.704  0.11599  1.96062
    34      1     34 0.07850000   -2.966  0.11839  0.88567
    35      1     35 0.07850000   -2.962  1.88547  0.88410
    36      1     36 0.07860000   -2.766  1.88668  3.38012
    37      1     37 0.07860000   -2.771  0.11922  3.38071
    38      1     38 0.07870000   -5.032  0.12519  2.30808
    39      1     39 0.07870000   -5.028  1.89196  2.30964
    40      1     40 0.07870000   -4.824  1.88994  4.80446
    41      1     41 0.07870000   -4.826  0.12307  4.80362
    42      1     42 0.07880000   -7.089  0.12554  3.73377
    43      1     43 0.07880000   -7.087  1.89242  3.73234
    44      1     44 0.07870000   -6.878  1.89316  6.22788
    45      1     45 0.07870000   -6.882  0.12659  6.22758
    46      1     46 0.07880000   -9.143  0.13088  5.15404
    47      1     47 0.07880000   -9.139  1.89778  5.15117
    48      1     48 0.07860000   -8.933  1.90201  7.64508
    49      1     49 0.07860000   -8.935  0.13512  7.64875
    50      1     50 0.07870000  -11.195  0.13492  6.57322
    51      1     51 0.07870000  -11.193  1.90176  6.56735
    52      1     52 0.07830000  -10.986  1.90923  9.06234
    53      1     53 0.07830000  -10.990  0.14230  9.06741
    54      1     54 0.07850000  -13.249  0.14351  7.99367
    55      1     55 0.07850000  -13.245  1.91112  7.98634
    56      1     56 0.07770000  -13.036  1.92044 10.48067
    57      1     57 0.07770000  -13.041  0.15357 10.48737
    58      1     58 0.07800000  -15.304  0.15618  9.41833
    59      1     59 0.07800000  -15.299  1.92325  9.41166
    60      1     60 0.07650000  -15.088  1.93140 11.90589
    61      1     61 0.07650000  -15.092  0.16419 11.91230
    62      1     62 0.07700000  -17.355  0.16509 10.84660
    63      1     63 0.07700000  -17.352  1.93179 10.83844
    64      1     64 0.07370000  -17.146  1.94242 13.33465
    65      1     65 0.07370000  -17.152  0.17481 13.34135
    66      1     66 0.07570000  -19.412  0.17943 12.26518
    67      1     67 0.07570000  -19.406  1.94633 12.26083
    68      1     68 0.06520000  -19.227  1.95275 14.75739
    69      1     69 0.06520000  -19.231  0.18522 14.76253
    70      1     70 0.07940000  -21.481  0.18860 13.66350
    71      1     71 0.07940000  -21.477  1.95235 13.65614
    72      1     72 0.05900000  -21.330  1.96547 16.15250
    73      1     73 0.05900000  -21.333  0.19631 16.16028

Bonds 

     1      1      2      1
     2      2      3      2
     3      3      4      3
     4      4      5      4
     5      5      6      5
     6      6      7      6
     7      7      8      7
     8      8      9      8
     9      9     10      9
    10     10     11     10
    11     11     12     11
    12     12     13     12
    13     13     14     13
    14     14     15     14
    15     15     16     15
    16     16     17     16
    17     17     18     17
    18     18     19     18
    19     19     20     19
    20     20     21     20
    21     21     22     21
    22     22     23     22
    23     23     24     23
    24     24     25     24
    25     25     26     24
    26     26     27      1
    27     27     28      1
    28     28     29      1
    29     29     30      2
    30     30     31      2
    31     31     32      3
    32     32     33      3
    33     33     34      4
    34     34     35      4
    35     35     36      5
    36     36     37      5
    37     37     38      6
    38     38     39      6
    39     39     40      7
    40     40     41      7
    41     41     42      8
    42     42     43      8
    43     43     44      9
    44     44     45      9
    45     45     46     10
    46     46     47     10
    47     47     48     11
    48     48     49     11
    49     49     50     12
    50     50     51     12
    51     51     52     13
    52     52     53     13
    53     53     54     14
    54     54     55     14
    55     55     56     15
    56     56     57     15
    57     57     58     16
    58     58     59     16
    59     59     60     17
    60     60     61     17
    61     61     62     18
    62     62     63     18
    63     63     64     19
    64     64     65     19
    65     65     66     20
    66     66     67     20
    67     67     68     21
    68     68     69     21
    69     69     70     22
    70     70     71     22
    71     71     72     23
    72     72     73     23

Angles 

     1      1      1      2      3
     2      2      2      3      4
     3      3      3      4      5
     4      4      4      5      6
     5      5      5      6      7
     6      6      6      7      8
     7      7      7      8      9
     8      8      8      9     10
     9      9      9     10     11
    10     10     10     11     12
    11     11     11     12     13
    12     12     12     13     14
    13     13     13     14     15
    14     14     14     15     16
    15     15     15     16     17
    16     16     16     17     18
    17     17     17     18     19
    18     18     18     19     20
    19     19     19     20     21
    20     20     20     21     22
    21     21     21     22     23
    22     22     22     23     24
    23     23     23     24     25
    24     24     23     24     26
    25     25      2      1     27
    26     26      2      1     28
    27     27      2      1     29
    28     28      1      2     30
    29     29      1      2     31
    30     30      2      3     32
    31     31      2      3     33
    32     32      3      4     34
    33     33      3      4     35
    34     34      4      5     36
    35     35      4      5     37
    36     36      5      6     38
    37     37      5      6     39
    38     38      6      7     40
    39     39      6      7     41
    40     40      7      8     42
    41     41      7      8     43
    42     42      8      9     44
    43     43      8      9     45
    44     44      9     10     46
    45     45      9     10     47
    46     46     10     11     48
    47     47     10     11     49
    48     48     11     12     50
    49     49     11     12     51
    50     50     12     13     52
    51     51     12     13     53
    52     52     13     14     54
    53     53     13     14     55
    54     54     14     15     56
    55     55     14     15     57
    56     56     15     16     58
    57     57     15     16     59
    58     58     16     17     60
    59     59     16     17     61
    60     60     17     18     62
    61     61     17     18     63
    62     62     18     19     64
    63     63     18     19     65
    64     64     19     20     66
    65     65     19     20     67
    66     66     20     21     68
    67     67     20     21     69
    68     68     21     22     70
    69     69     21     22     71
    70     70     22     23     72
    71     71     22     23     73
    72     72     56     15     57
    73     73     14     13     53
    74     74     62     18     63
    75     75     50     12     51
    76     76     13     12     50
    77     77     27      1     29
    78     78     23     22     71
    79     79     17     16     58
    80     80     36      5     37
    81     81     25     24     26
    82     82      5      4     35
    83     83      3      2     31
    84     84      9      8     42
    85     85     68     21     69
    86     86     21     20     67
    87     87     20     19     64
    88     88      9      8     43
    89     89     15     14     55
    90     90     24     23     72
    91     91      7      6     38
    92     92     17     16     59
    93     93     18     17     61
    94     94     28      1     29
    95     95     22     21     69
    96     96     19     18     63
    97     97     44      9     45
    98     98     11     10     46
    99     99      8      7     41
   100    100      4      3     32
   101    101     18     17     60
   102    102     20     19     65
   103    103     10      9     44
   104    104     64     19     65
   105    105     21     20     66
   106    106     10      9     45
   107    107     70     22     71
   108    108      4      3     33
   109    109     24     23     73
   110    110     54     14     55
   111    111     15     14     54
   112    112     32      3     33
   113    113     66     20     67
   114    114     40      7     41
   115    115     12     11     49
   116    116     16     15     57
   117    117      7      6     39
   118    118     58     16     59
   119    119     14     13     52
   120    120     19     18     62
   121    121      6      5     36
   122    122     48     11     49
   123    123     46     10     47
   124    124     27      1     28
   125    125     30      2     31
   126    126     16     15     56
   127    127      8      7     40
   128    128     42      8     43
   129    129     60     17     61
   130    130     13     12     51
   131    131     52     13     53
   132    132     12     11     48
   133    133     23     22     70
   134    134     72     23     73
   135    135      3      2     30
   136    136     11     10     47
   137    137     34      4     35
   138    138      6      5     37
   139    139     22     21     68
   140    140      5      4     34
   141    141     38      6     39

Dihedrals

     1      1      4      3      2      1 
     2      2      5      4      3      2 
     3      3      6      5      4      3 
     4      4      7      6      5      4 
     5      5      8      7      6      5 
     6      6      9      8      7      6 
     7      7     10      9      8      7 
     8      8     11     10      9      8 
     9      9     12     11     10      9 
    10     10     13     12     11     10 
    11     11     14     13     12     11 
    12     12     15     14     13     12 
    13     13     16     15     14     13 
    14     14     17     16     15     14 
    15     15     18     17     16     15 
    16     16     19     18     17     16 
    17     17     20     19     18     17 
    18     18     21     20     19     18 
    19     19     22     21     20     19 
    20     20     23     22     21     20 
    21     21     24     23     22     21 
    22     22     25     24     23     22 
    23     23     27      1      2      3 
    24     24     32      3      2     31 
    25     25     39      6      5      4 
    26     26     36      5      6      7 
    27     27     73     23     24     25 
    28     28     63     18     17     16 
    29     29     60     17     18     19 
    30     30     55     14     13     12 
    31     31     44      9      8      7 
    32     32     65     19     18     63 
    33     33     52     13     12     11 
    34     34     56     15     16     17 
    35     35     42      8      9     10 
    36     36     45      9      8     43 
    37     37     47     10      9     44 
    38     38     72     23     22     21 
    39     39     60     17     16     15 
    40     40     63     18     19     20 
    41     41     73     23     22     71 
    42     42     68     21     22     23 
    43     43     50     12     11     10 
    44     44     73     23     24     26 
    45     45     34      4      3      2 
    46     46     58     16     15     14 
    47     47     37      5      4     35 
    48     48     42      8      7     40 
    49     49     67     20     21     22 
    50     50     49     11     10      9 
    51     51     59     16     15     14 
    52     52     52     13     14     15 
    53     53     39      6      5     36 
    54     54     66     20     19     18 
    55     55     42      8      7      6 
    56     56     66     20     21     22 
    57     57     31      2      1     29 
    58     58     58     16     15     56 
    59     59     72     23     22     70 
    60     60     64     19     18     17 
    61     61     35      4      3      2 
    62     62     69     21     20     19 
    63     63     67     20     19     18 
    64     64     32      3      4      5 
    65     65     50     12     11     48 
    66     66     53     13     14     15 
    67     67     53     13     12     51 
    68     68     68     21     20     67 
    69     69     69     21     20     66 
    70     70     30      2      1     27 
    71     71     66     20     19     64 
    72     72     37      5      4      3 
    73     73     43      8      7     41 
    74     74     44      9     10     11 
    75     75     47     10      9      8 
    76     76     38      6      5     36 
    77     77     51     12     11     48 
    78     78     45      9      8      7 
    79     79     58     16     15     57 
    80     80     59     16     15     56 
    81     81     40      7      6     38 
    82     82     69     21     20     67 
    83     83     48     11     10     46 
    84     84     50     12     13     14 
    85     85     53     13     12     11 
    86     86     33      3      2      1 
    87     87     31      2      1     27 
    88     88     30      2      1     28 
    89     89     43      8      9     10 
    90     90     41      7      6     39 
    91     91     59     16     15     57 
    92     92     36      5      4      3 
    93     93     55     14     13     53 
    94     94     62     18     17     61 
    95     95     30      2      3      4 
    96     96     29      1      2      3 
    97     97     46     10      9     45 
    98     98     61     17     16     59 
    99     99     45      9     10     11 
   100    100     51     12     11     49 
   101    101     36      5      4     35 
   102    102     70     22     21     68 
   103    103     60     17     16     59 
   104    104     61     17     16     58 
   105    105     55     14     15     16 
   106    106     68     21     20     66 
   107    107     62     18     17     16 
   108    108     65     19     20     21 
   109    109     62     18     19     20 
   110    110     68     21     20     19 
   111    111     54     14     13     12 
   112    112     65     19     18     17 
   113    113     61     17     18     19 
   114    114     38      6      5      4 
   115    115     70     22     21     69 
   116    116     70     22     23     24 
   117    117     54     14     13     53 
   118    118     48     11     10     47 
   119    119     71     22     23     24 
   120    120     71     22     21     69 
   121    121     37      5      4     34 
   122    122     28      1      2      3 
   123    123     51     12     11     10 
   124    124     54     14     15     16 
   125    125     32      3      2     30 
   126    126     67     20     19     64 
   127    127     66     20     19     65 
   128    128     40      7      6     39 
   129    129     41      7      6     38 
   130    130     43      8      7      6 
   131    131     47     10      9     45 
   132    132     40      7      8      9 
   133    133     73     23     22     21 
   134    134     72     23     24     25 
   135    135     46     10      9     44 
   136    136     42      8      7     41 
   137    137     43      8      7     40 
   138    138     52     13     12     51 
   139    139     46     10     11     12 
   140    140     35      4      5      6 
   141    141     67     20     19     65 
   142    142     57     15     14     55 
   143    143     51     12     13     14 
   144    144     47     10     11     12 
   145    145     72     23     22     71 
   146    146     57     15     16     17 
   147    147     38      6      7      8 
   148    148     53     13     12     50 
   149    149     59     16     17     18 
   150    150     41      7      8      9 
   151    151     35      4      3     32 
   152    152     34      4      3     33 
   153    153     50     12     11     49 
   154    154     34      4      3     32 
   155    155     48     11     12     13 
   156    156     49     11     10     46 
   157    157     39      6      5     37 
   158    158     45      9      8     42 
   159    159     71     22     21     68 
   160    160     49     11     12     13 
   161    161     57     15     14     13 
   162    162     57     15     14     54 
   163    163     32      3      2      1 
   164    164     56     15     14     54 
   165    165     44      9      8     43 
   166    166     71     22     21     20 
   167    167     35      4      3     33 
   168    168     56     15     14     55 
   169    169     64     19     18     63 
   170    170     39      6      7      8 
   171    171     55     14     13     52 
   172    172     69     21     22     23 
   173    173     38      6      5     37 
   174    174     33      3      2     30 
   175    175     65     19     18     62 
   176    176     26     24     23     22 
   177    177     44      9      8     42 
   178    178     72     23     24     26 
   179    179     34      4      5      6 
   180    180     56     15     14     13 
   181    181     36      5      4     34 
   182    182     70     22     21     20 
   183    183     48     11     10      9 
   184    184     30      2      1     29 
   185    185     31      2      1     28 
   186    186     31      2      3      4 
   187    187     64     19     20     21 
   188    188     62     18     17     60 
   189    189     41      7      6      5 
   190    190     61     17     16     15 
   191    191     58     16     17     18 
   192    192     40      7      6      5 
   193    193     63     18     17     60 
   194    194     33      3      2     31 
   195    195     46     10      9      8 
   196    196     52     13     12     50 
   197    197     64     19     18     62 
   198    198     60     17     16     58 
   199    199     63     18     17     61 
   200    200     33      3      4      5 
   201    201     54     14     13     52 
   202    202     49     11     10     47 
   203    203     73     23     22     70 
   204    204     37      5      6      7 

Impropers

     1      1     24     25     26     23 
     2      2      1      2     27     28 
     3      3      1      2     27     29 
     4      4      2      1      3     30 
     5      5      2      1      3     31 
     6      6      3      2      4     32 
     7      7      3     33      2      4 
     8      8      4     34      3      5 
     9      9      4     35      5      3 
    10     10      5      4     36      6 
    11     11      5      4     37      6 
    12     12      6      5     38      7 
    13     13      6      7      5     39 
    14     14      7      8      6     40 
    15     15      7     41      6      8 
    16     16      8      9     42      7 
    17     17      8      9     43      7 
    18     18      9     10     44      8 
    19     19      9     10     45      8 
    20     20     10      9     11     46 
    21     21     10      9     11     47 
    22     22     11     10     12     48 
    23     23     11     49     10     12 
    24     24     12     50     11     13 
    25     25     12     51     13     11 
    26     26     13     12     52     14 
    27     27     13     12     53     14 
    28     28     14     13     54     15 
    29     29     14     15     13     55 
    30     30     15     16     14     56 
    31     31     15     57     14     16 
    32     32     16     17     58     15 
    33     33     16     17     59     15 
    34     34     17     18     60     16 
    35     35     17     18     61     16 
    36     36     18     17     19     62 
    37     37     18     17     19     63 
    38     38     19     18     20     64 
    39     39     19     65     18     20 
    40     40     20     66     19     21 
    41     41     20     67     21     19 
    42     42     21     20     68     22 
    43     43     21     20     69     22 
    44     44     22     21     70     23 
    45     45     22     23     21     71 
    46     46     23     24     22     72 
    47     47     23     73     22     24 

