LAMMPS data file Created by LigParGen - (Written by Leela S. Dodda)

      74 atoms
      73 bonds
     144 angles
     207 dihedrals
      48 impropers
 
      74 atom types
      73 bond types
     144 angle types
     207 dihedral types
      48 improper types
 
  -23.555080    26.444920 xlo xhi
    0.065030    50.065030 ylo yhi
   -1.027500    48.972500 zlo zhi

Masses

       1     12.011  
       2     12.011  
       3     12.011  
       4     12.011  
       5     12.011  
       6     12.011  
       7     12.011  
       8     12.011  
       9     12.011  
      10     12.011  
      11     12.011  
      12     12.011  
      13     12.011  
      14     12.011  
      15     12.011  
      16     12.011  
      17     12.011  
      18     12.011  
      19     12.011  
      20     12.011  
      21     12.011  
      22     12.011  
      23     12.011  
      24     12.011  
      25      1.008  
      26      1.008  
      27      1.008  
      28      1.008  
      29      1.008  
      30      1.008  
      31      1.008  
      32      1.008  
      33      1.008  
      34      1.008  
      35      1.008  
      36      1.008  
      37      1.008  
      38      1.008  
      39      1.008  
      40      1.008  
      41      1.008  
      42      1.008  
      43      1.008  
      44      1.008  
      45      1.008  
      46      1.008  
      47      1.008  
      48      1.008  
      49      1.008  
      50      1.008  
      51      1.008  
      52      1.008  
      53      1.008  
      54      1.008  
      55      1.008  
      56      1.008  
      57      1.008  
      58      1.008  
      59      1.008  
      60      1.008  
      61      1.008  
      62      1.008  
      63      1.008  
      64      1.008  
      65      1.008  
      66      1.008  
      67      1.008  
      68      1.008  
      69      1.008  
      70      1.008  
      71      1.008  
      72      1.008  
      73      1.008  
      74      1.008  

Pair Coeffs 

       1      0.066  3.5000000 
       2      0.066  3.5000000 
       3      0.066  3.5000000 
       4      0.066  3.5000000 
       5      0.066  3.5000000 
       6      0.066  3.5000000 
       7      0.066  3.5000000 
       8      0.066  3.5000000 
       9      0.066  3.5000000 
      10      0.066  3.5000000 
      11      0.066  3.5000000 
      12      0.066  3.5000000 
      13      0.066  3.5000000 
      14      0.066  3.5000000 
      15      0.066  3.5000000 
      16      0.066  3.5000000 
      17      0.066  3.5000000 
      18      0.066  3.5000000 
      19      0.066  3.5000000 
      20      0.066  3.5000000 
      21      0.066  3.5000000 
      22      0.066  3.5000000 
      23      0.066  3.5000000 
      24      0.066  3.5000000 
      25      0.030  2.5000000 
      26      0.030  2.5000000 
      27      0.030  2.5000000 
      28      0.030  2.5000000 
      29      0.030  2.5000000 
      30      0.030  2.5000000 
      31      0.030  2.5000000 
      32      0.030  2.5000000 
      33      0.030  2.5000000 
      34      0.030  2.5000000 
      35      0.030  2.5000000 
      36      0.030  2.5000000 
      37      0.030  2.5000000 
      38      0.030  2.5000000 
      39      0.030  2.5000000 
      40      0.030  2.5000000 
      41      0.030  2.5000000 
      42      0.030  2.5000000 
      43      0.030  2.5000000 
      44      0.030  2.5000000 
      45      0.030  2.5000000 
      46      0.030  2.5000000 
      47      0.030  2.5000000 
      48      0.030  2.5000000 
      49      0.030  2.5000000 
      50      0.030  2.5000000 
      51      0.030  2.5000000 
      52      0.030  2.5000000 
      53      0.030  2.5000000 
      54      0.030  2.5000000 
      55      0.030  2.5000000 
      56      0.030  2.5000000 
      57      0.030  2.5000000 
      58      0.030  2.5000000 
      59      0.030  2.5000000 
      60      0.030  2.5000000 
      61      0.030  2.5000000 
      62      0.030  2.5000000 
      63      0.030  2.5000000 
      64      0.030  2.5000000 
      65      0.030  2.5000000 
      66      0.030  2.5000000 
      67      0.030  2.5000000 
      68      0.030  2.5000000 
      69      0.030  2.5000000 
      70      0.030  2.5000000 
      71      0.030  2.5000000 
      72      0.030  2.5000000 
      73      0.030  2.5000000 
      74      0.030  2.5000000 

Bond Coeffs 

       1   268.0000     1.5290 
       2   268.0000     1.5290 
       3   268.0000     1.5290 
       4   268.0000     1.5290 
       5   268.0000     1.5290 
       6   268.0000     1.5290 
       7   268.0000     1.5290 
       8   268.0000     1.5290 
       9   268.0000     1.5290 
      10   268.0000     1.5290 
      11   268.0000     1.5290 
      12   268.0000     1.5290 
      13   268.0000     1.5290 
      14   268.0000     1.5290 
      15   268.0000     1.5290 
      16   268.0000     1.5290 
      17   268.0000     1.5290 
      18   268.0000     1.5290 
      19   268.0000     1.5290 
      20   268.0000     1.5290 
      21   268.0000     1.5290 
      22   268.0000     1.5290 
      23   268.0000     1.5290 
      24   340.0000     1.0900 
      25   340.0000     1.0900 
      26   340.0000     1.0900 
      27   340.0000     1.0900 
      28   340.0000     1.0900 
      29   340.0000     1.0900 
      30   340.0000     1.0900 
      31   340.0000     1.0900 
      32   340.0000     1.0900 
      33   340.0000     1.0900 
      34   340.0000     1.0900 
      35   340.0000     1.0900 
      36   340.0000     1.0900 
      37   340.0000     1.0900 
      38   340.0000     1.0900 
      39   340.0000     1.0900 
      40   340.0000     1.0900 
      41   340.0000     1.0900 
      42   340.0000     1.0900 
      43   340.0000     1.0900 
      44   340.0000     1.0900 
      45   340.0000     1.0900 
      46   340.0000     1.0900 
      47   340.0000     1.0900 
      48   340.0000     1.0900 
      49   340.0000     1.0900 
      50   340.0000     1.0900 
      51   340.0000     1.0900 
      52   340.0000     1.0900 
      53   340.0000     1.0900 
      54   340.0000     1.0900 
      55   340.0000     1.0900 
      56   340.0000     1.0900 
      57   340.0000     1.0900 
      58   340.0000     1.0900 
      59   340.0000     1.0900 
      60   340.0000     1.0900 
      61   340.0000     1.0900 
      62   340.0000     1.0900 
      63   340.0000     1.0900 
      64   340.0000     1.0900 
      65   340.0000     1.0900 
      66   340.0000     1.0900 
      67   340.0000     1.0900 
      68   340.0000     1.0900 
      69   340.0000     1.0900 
      70   340.0000     1.0900 
      71   340.0000     1.0900 
      72   340.0000     1.0900 
      73   340.0000     1.0900 

Angle Coeffs 

       1     58.350    112.700
       2     58.350    112.700
       3     58.350    112.700
       4     58.350    112.700
       5     58.350    112.700
       6     58.350    112.700
       7     58.350    112.700
       8     58.350    112.700
       9     58.350    112.700
      10     58.350    112.700
      11     58.350    112.700
      12     58.350    112.700
      13     58.350    112.700
      14     58.350    112.700
      15     58.350    112.700
      16     58.350    112.700
      17     58.350    112.700
      18     58.350    112.700
      19     58.350    112.700
      20     58.350    112.700
      21     58.350    112.700
      22     58.350    112.700
      23     37.500    110.700
      24     37.500    110.700
      25     37.500    110.700
      26     37.500    110.700
      27     37.500    110.700
      28     37.500    110.700
      29     37.500    110.700
      30     37.500    110.700
      31     37.500    110.700
      32     37.500    110.700
      33     37.500    110.700
      34     37.500    110.700
      35     37.500    110.700
      36     37.500    110.700
      37     37.500    110.700
      38     37.500    110.700
      39     37.500    110.700
      40     37.500    110.700
      41     37.500    110.700
      42     37.500    110.700
      43     37.500    110.700
      44     37.500    110.700
      45     37.500    110.700
      46     37.500    110.700
      47     37.500    110.700
      48     37.500    110.700
      49     37.500    110.700
      50     37.500    110.700
      51     37.500    110.700
      52     37.500    110.700
      53     37.500    110.700
      54     37.500    110.700
      55     37.500    110.700
      56     37.500    110.700
      57     37.500    110.700
      58     37.500    110.700
      59     37.500    110.700
      60     37.500    110.700
      61     37.500    110.700
      62     37.500    110.700
      63     37.500    110.700
      64     37.500    110.700
      65     37.500    110.700
      66     37.500    110.700
      67     37.500    110.700
      68     37.500    110.700
      69     37.500    110.700
      70     37.500    110.700
      71     37.500    110.700
      72     37.500    110.700
      73     37.500    110.700
      74     37.500    110.700
      75     33.000    107.800
      76     37.500    110.700
      77     33.000    107.800
      78     37.500    110.700
      79     37.500    110.700
      80     37.500    110.700
      81     37.500    110.700
      82     37.500    110.700
      83     37.500    110.700
      84     33.000    107.800
      85     33.000    107.800
      86     33.000    107.800
      87     33.000    107.800
      88     37.500    110.700
      89     37.500    110.700
      90     33.000    107.800
      91     33.000    107.800
      92     37.500    110.700
      93     37.500    110.700
      94     33.000    107.800
      95     37.500    110.700
      96     37.500    110.700
      97     33.000    107.800
      98     33.000    107.800
      99     37.500    110.700
     100     37.500    110.700
     101     33.000    107.800
     102     37.500    110.700
     103     37.500    110.700
     104     37.500    110.700
     105     37.500    110.700
     106     37.500    110.700
     107     37.500    110.700
     108     33.000    107.800
     109     33.000    107.800
     110     37.500    110.700
     111     37.500    110.700
     112     37.500    110.700
     113     37.500    110.700
     114     37.500    110.700
     115     37.500    110.700
     116     33.000    107.800
     117     37.500    110.700
     118     33.000    107.800
     119     37.500    110.700
     120     37.500    110.700
     121     37.500    110.700
     122     33.000    107.800
     123     37.500    110.700
     124     33.000    107.800
     125     37.500    110.700
     126     33.000    107.800
     127     37.500    110.700
     128     33.000    107.800
     129     33.000    107.800
     130     33.000    107.800
     131     33.000    107.800
     132     37.500    110.700
     133     33.000    107.800
     134     37.500    110.700
     135     37.500    110.700
     136     33.000    107.800
     137     37.500    110.700
     138     37.500    110.700
     139     37.500    110.700
     140     37.500    110.700
     141     33.000    107.800
     142     37.500    110.700
     143     33.000    107.800
     144     33.000    107.800

Dihedral Coeffs  

       1      1.300     -0.200      0.200      0.000 
       2      1.300     -0.200      0.200      0.000 
       3      1.300     -0.200      0.200      0.000 
       4      1.300     -0.200      0.200      0.000 
       5      1.300     -0.200      0.200      0.000 
       6      1.300     -0.200      0.200      0.000 
       7      1.300     -0.200      0.200      0.000 
       8      1.300     -0.200      0.200      0.000 
       9      1.300     -0.200      0.200      0.000 
      10      1.300     -0.200      0.200      0.000 
      11      1.300     -0.200      0.200      0.000 
      12      1.300     -0.200      0.200      0.000 
      13      1.300     -0.200      0.200      0.000 
      14      1.300     -0.200      0.200      0.000 
      15      1.300     -0.200      0.200      0.000 
      16      1.300     -0.200      0.200      0.000 
      17      1.300     -0.200      0.200      0.000 
      18      1.300     -0.200      0.200      0.000 
      19      1.300     -0.200      0.200      0.000 
      20      1.300     -0.200      0.200      0.000 
      21      1.300     -0.200      0.200      0.000 
      22      0.000      0.000      0.300      0.000 
      23      0.000      0.000      0.300      0.000 
      24      0.000      0.000      0.300      0.000 
      25      0.000      0.000      0.300      0.000 
      26      0.000      0.000      0.300      0.000 
      27      0.000      0.000      0.300      0.000 
      28      0.000      0.000      0.300      0.000 
      29      0.000      0.000      0.300      0.000 
      30      0.000      0.000      0.300      0.000 
      31      0.000      0.000      0.300      0.000 
      32      0.000      0.000      0.300      0.000 
      33      0.000      0.000      0.300      0.000 
      34      0.000      0.000      0.300      0.000 
      35      0.000      0.000      0.300      0.000 
      36      0.000      0.000      0.300      0.000 
      37      0.000      0.000      0.300      0.000 
      38      0.000      0.000      0.300      0.000 
      39      0.000      0.000      0.300      0.000 
      40      0.000      0.000      0.300      0.000 
      41      0.000      0.000      0.300      0.000 
      42      0.000      0.000      0.300      0.000 
      43      0.000      0.000      0.300      0.000 
      44      0.000      0.000      0.300      0.000 
      45      0.000      0.000      0.300      0.000 
      46      0.000      0.000      0.300      0.000 
      47      0.000      0.000      0.300      0.000 
      48      0.000      0.000      0.300      0.000 
      49      0.000      0.000      0.300      0.000 
      50      0.000      0.000      0.300      0.000 
      51      0.000      0.000      0.300      0.000 
      52      0.000      0.000      0.300      0.000 
      53      0.000      0.000      0.300      0.000 
      54      0.000      0.000      0.300      0.000 
      55      0.000      0.000      0.300      0.000 
      56      0.000      0.000      0.300      0.000 
      57      0.000      0.000      0.300      0.000 
      58      0.000      0.000      0.300      0.000 
      59      0.000      0.000      0.300      0.000 
      60      0.000      0.000      0.300      0.000 
      61      0.000      0.000      0.300      0.000 
      62      0.000      0.000      0.300      0.000 
      63      0.000      0.000      0.300      0.000 
      64      0.000      0.000      0.300      0.000 
      65      0.000      0.000      0.300      0.000 
      66      0.000      0.000      0.300      0.000 
      67      0.000      0.000      0.300      0.000 
      68      0.000      0.000      0.300      0.000 
      69      0.000      0.000      0.300      0.000 
      70      0.000      0.000      0.300      0.000 
      71      0.000      0.000      0.300      0.000 
      72      0.000      0.000      0.300      0.000 
      73      0.000      0.000      0.300      0.000 
      74      0.000      0.000      0.300      0.000 
      75      0.000      0.000      0.300      0.000 
      76      0.000      0.000      0.300      0.000 
      77      0.000      0.000      0.300      0.000 
      78      0.000      0.000      0.300      0.000 
      79      0.000      0.000      0.300      0.000 
      80      0.000      0.000      0.300      0.000 
      81      0.000      0.000      0.300      0.000 
      82      0.000      0.000      0.300      0.000 
      83      0.000      0.000      0.300      0.000 
      84      0.000      0.000      0.300      0.000 
      85      0.000      0.000      0.300      0.000 
      86      0.000      0.000      0.300      0.000 
      87      0.000      0.000      0.300      0.000 
      88      0.000      0.000      0.300      0.000 
      89      0.000      0.000      0.300      0.000 
      90      0.000      0.000      0.300      0.000 
      91      0.000      0.000      0.300      0.000 
      92      0.000      0.000      0.300      0.000 
      93      0.000      0.000      0.300      0.000 
      94      0.000      0.000      0.300      0.000 
      95      0.000      0.000      0.300      0.000 
      96      0.000      0.000      0.300      0.000 
      97      0.000      0.000      0.300      0.000 
      98      0.000      0.000      0.300      0.000 
      99      0.000      0.000      0.300      0.000 
     100      0.000      0.000      0.300      0.000 
     101      0.000      0.000      0.300      0.000 
     102      0.000      0.000      0.300      0.000 
     103      0.000      0.000      0.300      0.000 
     104      0.000      0.000      0.300      0.000 
     105      0.000      0.000      0.300      0.000 
     106      0.000      0.000      0.300      0.000 
     107      0.000      0.000      0.300      0.000 
     108      0.000      0.000      0.300      0.000 
     109      0.000      0.000      0.300      0.000 
     110      0.000      0.000      0.300      0.000 
     111      0.000      0.000      0.300      0.000 
     112      0.000      0.000      0.300      0.000 
     113      0.000      0.000      0.300      0.000 
     114      0.000      0.000      0.300      0.000 
     115      0.000      0.000      0.300      0.000 
     116      0.000      0.000      0.300      0.000 
     117      0.000      0.000      0.300      0.000 
     118      0.000      0.000      0.300      0.000 
     119      0.000      0.000      0.300      0.000 
     120      0.000      0.000      0.300      0.000 
     121      0.000      0.000      0.300      0.000 
     122      0.000      0.000      0.300      0.000 
     123      0.000      0.000      0.300      0.000 
     124      0.000      0.000      0.300      0.000 
     125      0.000      0.000      0.300      0.000 
     126      0.000      0.000      0.300      0.000 
     127      0.000      0.000      0.300      0.000 
     128      0.000      0.000      0.300      0.000 
     129      0.000      0.000      0.300      0.000 
     130      0.000      0.000      0.300      0.000 
     131      0.000      0.000      0.300      0.000 
     132      0.000      0.000      0.300      0.000 
     133      0.000      0.000      0.300      0.000 
     134      0.000      0.000      0.300      0.000 
     135      0.000      0.000      0.300      0.000 
     136      0.000      0.000      0.300      0.000 
     137      0.000      0.000      0.300      0.000 
     138      0.000      0.000      0.300      0.000 
     139      0.000      0.000      0.300      0.000 
     140      0.000      0.000      0.300      0.000 
     141      0.000      0.000      0.300      0.000 
     142      0.000      0.000      0.300      0.000 
     143      0.000      0.000      0.300      0.000 
     144      0.000      0.000      0.300      0.000 
     145      0.000      0.000      0.300      0.000 
     146      0.000      0.000      0.300      0.000 
     147      0.000      0.000      0.300      0.000 
     148      0.000      0.000      0.300      0.000 
     149      0.000      0.000      0.300      0.000 
     150      0.000      0.000      0.300      0.000 
     151      0.000      0.000      0.300      0.000 
     152      0.000      0.000      0.300      0.000 
     153      0.000      0.000      0.300      0.000 
     154      0.000      0.000      0.300      0.000 
     155      0.000      0.000      0.300      0.000 
     156      0.000      0.000      0.300      0.000 
     157      0.000      0.000      0.300      0.000 
     158      0.000      0.000      0.300      0.000 
     159      0.000      0.000      0.300      0.000 
     160      0.000      0.000      0.300      0.000 
     161      0.000      0.000      0.300      0.000 
     162      0.000      0.000      0.300      0.000 
     163      0.000      0.000      0.300      0.000 
     164      0.000      0.000      0.300      0.000 
     165      0.000      0.000      0.300      0.000 
     166      0.000      0.000      0.300      0.000 
     167      0.000      0.000      0.300      0.000 
     168      0.000      0.000      0.300      0.000 
     169      0.000      0.000      0.300      0.000 
     170      0.000      0.000      0.300      0.000 
     171      0.000      0.000      0.300      0.000 
     172      0.000      0.000      0.300      0.000 
     173      0.000      0.000      0.300      0.000 
     174      0.000      0.000      0.300      0.000 
     175      0.000      0.000      0.300      0.000 
     176      0.000      0.000      0.300      0.000 
     177      0.000      0.000      0.300      0.000 
     178      0.000      0.000      0.300      0.000 
     179      0.000      0.000      0.300      0.000 
     180      0.000      0.000      0.300      0.000 
     181      0.000      0.000      0.300      0.000 
     182      0.000      0.000      0.300      0.000 
     183      0.000      0.000      0.300      0.000 
     184      0.000      0.000      0.300      0.000 
     185      0.000      0.000      0.300      0.000 
     186      0.000      0.000      0.300      0.000 
     187      0.000      0.000      0.300      0.000 
     188      0.000      0.000      0.300      0.000 
     189      0.000      0.000      0.300      0.000 
     190      0.000      0.000      0.300      0.000 
     191      0.000      0.000      0.300      0.000 
     192      0.000      0.000      0.300      0.000 
     193      0.000      0.000      0.300      0.000 
     194      0.000      0.000      0.300      0.000 
     195      0.000      0.000      0.300      0.000 
     196      0.000      0.000      0.300      0.000 
     197      0.000      0.000      0.300      0.000 
     198      0.000      0.000      0.300      0.000 
     199      0.000      0.000      0.300      0.000 
     200      0.000      0.000      0.300      0.000 
     201      0.000      0.000      0.300      0.000 
     202      0.000      0.000      0.300      0.000 
     203      0.000      0.000      0.300      0.000 
     204      0.000      0.000      0.300      0.000 
     205      0.000      0.000      0.300      0.000 
     206      0.000      0.000      0.300      0.000 
     207      0.000      0.000      0.300      0.000 

Improper Coeffs 

       1      0.000      -1       2 
       2      0.000      -1       2 
       3      0.000      -1       2 
       4      0.000      -1       2 
       5      0.000      -1       2 
       6      0.000      -1       2 
       7      0.000      -1       2 
       8      0.000      -1       2 
       9      0.000      -1       2 
      10      0.000      -1       2 
      11      0.000      -1       2 
      12      0.000      -1       2 
      13      0.000      -1       2 
      14      0.000      -1       2 
      15      0.000      -1       2 
      16      0.000      -1       2 
      17      0.000      -1       2 
      18      0.000      -1       2 
      19      0.000      -1       2 
      20      0.000      -1       2 
      21      0.000      -1       2 
      22      0.000      -1       2 
      23      0.000      -1       2 
      24      0.000      -1       2 
      25      0.000      -1       2 
      26      0.000      -1       2 
      27      0.000      -1       2 
      28      0.000      -1       2 
      29      0.000      -1       2 
      30      0.000      -1       2 
      31      0.000      -1       2 
      32      0.000      -1       2 
      33      0.000      -1       2 
      34      0.000      -1       2 
      35      0.000      -1       2 
      36      0.000      -1       2 
      37      0.000      -1       2 
      38      0.000      -1       2 
      39      0.000      -1       2 
      40      0.000      -1       2 
      41      0.000      -1       2 
      42      0.000      -1       2 
      43      0.000      -1       2 
      44      0.000      -1       2 
      45      0.000      -1       2 
      46      0.000      -1       2 
      47      0.000      -1       2 
      48      0.000      -1       2 

Atoms 

     1      1      1 -0.23900000    1.000  1.00000  0.00000
     2      1      2 -0.17960000   -0.520  1.00000  0.00000
     3      1      3 -0.17890000   -1.068  1.00000  1.42412
     4      1      4 -0.17950000   -2.593  0.99820  1.42576
     5      1      5 -0.17980000   -3.131  1.00002  2.85122
     6      1      6 -0.17970000   -4.656  0.99642  2.85449
     7      1      7 -0.17980000   -5.187  1.00006  4.28215
     8      1      8 -0.18000000   -6.709  0.99467  4.28542
     9      1      9 -0.18010000   -7.239  1.00010  5.71196
    10      1     10 -0.18030000   -8.761  0.99289  5.71199
    11      1     11 -0.18020000   -9.290  1.00013  7.13796
    12      1     12 -0.18030000  -10.812  0.99111  7.13638
    13      1     13 -0.18040000  -11.341  1.00015  8.56214
    14      1     14 -0.18020000  -12.863  0.98932  8.56058
    15      1     15 -0.18020000  -13.393  0.99656  9.98649
    16      1     16 -0.18010000  -14.914  0.98755  9.98654
    17      1     17 -0.18000000  -15.445  0.99299 11.41333
    18      1     18 -0.18000000  -16.967  0.98218 11.41501
    19      1     19 -0.17970000  -17.500  0.98579 12.84197
    20      1     20 -0.17980000  -19.024  0.97677 12.84364
    21      1     21 -0.17960000  -19.564  0.97854 14.27019
    22      1     22 -0.17870000  -21.089  0.96770 14.26861
    23      1     23 -0.17910000  -21.639  0.97119 15.69142
    24      1     24 -0.23910000  -23.158  0.95860 15.68823
    25      1     25 0.08070000    1.378  0.99870 -1.02750
    26      1     26 0.08070000    1.390  0.11348  0.50961
    27      1     27 0.08070000    1.389  1.88893  0.50665
    28      1     28 0.08840000   -0.881  0.11527 -0.53757
    29      1     29 0.08840000   -0.881  1.88133 -0.53976
    30      1     30 0.08950000   -0.700  1.88479  1.96030
    31      1     31 0.08950000   -0.698  0.11825  1.96199
    32      1     32 0.08950000   -2.963  0.11327  0.89222
    33      1     33 0.08950000   -2.966  1.87997  0.88945
    34      1     34 0.08970000   -2.763  1.88504  3.38439
    35      1     35 0.08970000   -2.760  0.11834  3.38791
    36      1     36 0.09000000   -5.025  0.11004  2.32420
    37      1     37 0.09000000   -5.029  1.87752  2.31806
    38      1     38 0.09000000   -4.818  1.88698  4.81258
    39      1     39 0.09000000   -4.812  0.11988  4.81944
    40      1     40 0.09000000   -7.078  0.10730  3.75686
    41      1     41 0.09000000   -7.084  1.87378  3.74787
    42      1     42 0.09010000   -6.872  1.88779  6.24171
    43      1     43 0.09010000   -6.864  0.12041  6.25055
    44      1     44 0.09010000   -9.127  0.10406  5.18408
    45      1     45 0.09010000   -9.136  1.87075  5.17209
    46      1     46 0.09020000   -8.924  1.88949  7.66523
    47      1     47 0.09020000   -8.915  0.12190  7.67798
    48      1     48 0.09010000  -11.177  0.10091  6.60956
    49      1     49 0.09010000  -11.187  1.86775  6.59450
    50      1     50 0.09010000  -10.976  1.89112  9.08806
    51      1     51 0.09010000  -10.963  0.12383  9.10291
    52      1     52 0.09020000  -13.226  0.09889  8.03289
    53      1     53 0.09020000  -13.238  1.86638  8.01917
    54      1     54 0.09010000  -13.026  1.88642 10.51291
    55      1     55 0.09010000  -13.016  0.11957 10.52650
    56      1     56 0.09010000  -15.279  0.09834  9.45767
    57      1     57 0.09010000  -15.290  1.86517  9.44610
    58      1     58 0.09000000  -15.079  1.88266 11.94036
    59      1     59 0.09000000  -15.065  0.11592 11.95223
    60      1     60 0.08990000  -17.330  0.09306 10.88445
    61      1     61 0.08990000  -17.342  1.86029 10.87539
    62      1     62 0.08990000  -17.133  1.87405 13.37083
    63      1     63 0.08990000  -17.123  0.10715 13.37913
    64      1     64 0.08960000  -19.387  0.08967 12.31055
    65      1     65 0.08960000  -19.397  1.85588 12.30435
    66      1     66 0.08950000  -19.199  1.86636 14.80069
    67      1     67 0.08950000  -19.186  0.10013 14.80768
    68      1     68 0.08960000  -21.449  0.07935 13.73489
    69      1     69 0.08960000  -21.462  1.84527 13.72571
    70      1     70 0.08850000  -21.285  1.86034 16.22556
    71      1     71 0.08850000  -21.270  0.09391 16.23567
    72      1     72 0.08060000  -23.555  1.83980 15.17367
    73      1     73 0.08060000  -23.541  0.96251 16.71446
    74      1     74 0.08060000  -23.539  0.06503 15.18364

Bonds 

     1      1      2      1
     2      2      3      2
     3      3      4      3
     4      4      5      4
     5      5      6      5
     6      6      7      6
     7      7      8      7
     8      8      9      8
     9      9     10      9
    10     10     11     10
    11     11     12     11
    12     12     13     12
    13     13     14     13
    14     14     15     14
    15     15     16     15
    16     16     17     16
    17     17     18     17
    18     18     19     18
    19     19     20     19
    20     20     21     20
    21     21     22     21
    22     22     23     22
    23     23     24     23
    24     24     25      1
    25     25     26      1
    26     26     27      1
    27     27     28      2
    28     28     29      2
    29     29     30      3
    30     30     31      3
    31     31     32      4
    32     32     33      4
    33     33     34      5
    34     34     35      5
    35     35     36      6
    36     36     37      6
    37     37     38      7
    38     38     39      7
    39     39     40      8
    40     40     41      8
    41     41     42      9
    42     42     43      9
    43     43     44     10
    44     44     45     10
    45     45     46     11
    46     46     47     11
    47     47     48     12
    48     48     49     12
    49     49     50     13
    50     50     51     13
    51     51     52     14
    52     52     53     14
    53     53     54     15
    54     54     55     15
    55     55     56     16
    56     56     57     16
    57     57     58     17
    58     58     59     17
    59     59     60     18
    60     60     61     18
    61     61     62     19
    62     62     63     19
    63     63     64     20
    64     64     65     20
    65     65     66     21
    66     66     67     21
    67     67     68     22
    68     68     69     22
    69     69     70     23
    70     70     71     23
    71     71     72     24
    72     72     73     24
    73     73     74     24

Angles 

     1      1      1      2      3
     2      2      2      3      4
     3      3      3      4      5
     4      4      4      5      6
     5      5      5      6      7
     6      6      6      7      8
     7      7      7      8      9
     8      8      8      9     10
     9      9      9     10     11
    10     10     10     11     12
    11     11     11     12     13
    12     12     12     13     14
    13     13     13     14     15
    14     14     14     15     16
    15     15     15     16     17
    16     16     16     17     18
    17     17     17     18     19
    18     18     18     19     20
    19     19     19     20     21
    20     20     20     21     22
    21     21     21     22     23
    22     22     22     23     24
    23     23      2      1     25
    24     24      2      1     26
    25     25      2      1     27
    26     26      1      2     28
    27     27      1      2     29
    28     28      2      3     30
    29     29      2      3     31
    30     30      3      4     32
    31     31      3      4     33
    32     32      4      5     34
    33     33      4      5     35
    34     34      5      6     36
    35     35      5      6     37
    36     36      6      7     38
    37     37      6      7     39
    38     38      7      8     40
    39     39      7      8     41
    40     40      8      9     42
    41     41      8      9     43
    42     42      9     10     44
    43     43      9     10     45
    44     44     10     11     46
    45     45     10     11     47
    46     46     11     12     48
    47     47     11     12     49
    48     48     12     13     50
    49     49     12     13     51
    50     50     13     14     52
    51     51     13     14     53
    52     52     14     15     54
    53     53     14     15     55
    54     54     15     16     56
    55     55     15     16     57
    56     56     16     17     58
    57     57     16     17     59
    58     58     17     18     60
    59     59     17     18     61
    60     60     18     19     62
    61     61     18     19     63
    62     62     19     20     64
    63     63     19     20     65
    64     64     20     21     66
    65     65     20     21     67
    66     66     21     22     68
    67     67     21     22     69
    68     68     22     23     70
    69     69     22     23     71
    70     70     23     24     72
    71     71     23     24     73
    72     72     23     24     74
    73     73     19     18     61
    74     74      7      6     36
    75     75     73     24     74
    76     76      6      5     34
    77     77     28      2     29
    78     78     20     19     62
    79     79      4      3     31
    80     80      9      8     40
    81     81     23     22     68
    82     82     10      9     42
    83     83      7      6     37
    84     84     50     13     51
    85     85     52     14     53
    86     86     64     20     65
    87     87     72     24     74
    88     88     23     22     69
    89     89      9      8     41
    90     90     36      6     37
    91     91     72     24     73
    92     92     16     15     55
    93     93     22     21     66
    94     94     66     21     67
    95     95     13     12     48
    96     96      8      7     39
    97     97     70     23     71
    98     98     68     22     69
    99     99     10      9     43
   100    100     12     11     47
   101    101     58     17     59
   102    102     24     23     71
   103    103      5      4     32
   104    104      3      2     29
   105    105     22     21     67
   106    106      5      4     33
   107    107     21     20     65
   108    108     46     11     47
   109    109     34      5     35
   110    110     11     10     45
   111    111     14     13     50
   112    112     24     23     70
   113    113     11     10     44
   114    114     13     12     49
   115    115     17     16     56
   116    116     25      1     26
   117    117     17     16     57
   118    118     42      9     43
   119    119     18     17     59
   120    120      6      5     35
   121    121     21     20     64
   122    122     25      1     27
   123    123     14     13     51
   124    124     30      3     31
   125    125      4      3     30
   126    126     26      1     27
   127    127     16     15     54
   128    128     62     19     63
   129    129     40      8     41
   130    130     44     10     45
   131    131     38      7     39
   132    132      8      7     38
   133    133     54     15     55
   134    134     12     11     46
   135    135      3      2     28
   136    136     60     18     61
   137    137     18     17     58
   138    138     19     18     60
   139    139     15     14     52
   140    140     20     19     63
   141    141     56     16     57
   142    142     15     14     53
   143    143     48     12     49
   144    144     32      4     33

Dihedrals

     1      1      4      3      2      1 
     2      2      5      4      3      2 
     3      3      6      5      4      3 
     4      4      7      6      5      4 
     5      5      8      7      6      5 
     6      6      9      8      7      6 
     7      7     10      9      8      7 
     8      8     11     10      9      8 
     9      9     12     11     10      9 
    10     10     13     12     11     10 
    11     11     14     13     12     11 
    12     12     15     14     13     12 
    13     13     16     15     14     13 
    14     14     17     16     15     14 
    15     15     18     17     16     15 
    16     16     19     18     17     16 
    17     17     20     19     18     17 
    18     18     21     20     19     18 
    19     19     22     21     20     19 
    20     20     23     22     21     20 
    21     21     24     23     22     21 
    22     22     25      1      2      3 
    23     23     72     24     23     22 
    24     24     54     15     14     52 
    25     25     63     19     18     17 
    26     26     60     18     19     20 
    27     27     52     14     13     12 
    28     28     35      5      4     32 
    29     29     34      5      4     33 
    30     30     56     16     15     54 
    31     31     68     22     21     20 
    32     32     59     17     16     15 
    33     33     58     17     16     15 
    34     34     28      2      1     27 
    35     35     49     12     13     14 
    36     36     50     13     12     49 
    37     37     51     13     12     48 
    38     38     43      9     10     11 
    39     39     57     16     15     14 
    40     40     54     15     16     17 
    41     41     32      4      3      2 
    42     42     65     20     19     62 
    43     43     33      4      3     30 
    44     44     32      4      3     31 
    45     45     52     14     13     50 
    46     46     31      3      2     29 
    47     47     66     21     20     65 
    48     48     38      7      6     36 
    49     49     55     15     16     17 
    50     50     45     10      9     42 
    51     51     42      9      8      7 
    52     52     57     16     15     54 
    53     53     51     13     14     15 
    54     54     58     17     16     56 
    55     55     26      1      2      3 
    56     56     47     11     12     13 
    57     57     32      4      5      6 
    58     58     63     19     20     21 
    59     59     68     22     21     66 
    60     60     35      5      4      3 
    61     61     42      9      8     40 
    62     62     62     19     18     61 
    63     63     33      4      3     31 
    64     64     39      7      8      9 
    65     65     61     18     19     20 
    66     66     47     11     10     44 
    67     67     39      7      6     36 
    68     68     62     19     18     17 
    69     69     63     19     18     60 
    70     70     62     19     20     21 
    71     71     28      2      3      4 
    72     72     45     10      9     43 
    73     73     45     10     11     12 
    74     74     31      3      2      1 
    75     75     73     24     23     71 
    76     76     41      8      7      6 
    77     77     38      7      6      5 
    78     78     38      7      8      9 
    79     79     67     21     20     65 
    80     80     59     17     16     57 
    81     81     71     23     22     68 
    82     82     70     23     22     69 
    83     83     58     17     16     57 
    84     84     59     17     16     56 
    85     85     57     16     15     55 
    86     86     29      2      1     26 
    87     87     27      1      2      3 
    88     88     68     22     23     24 
    89     89     30      3      2     29 
    90     90     31      3      2     28 
    91     91     53     14     15     16 
    92     92     61     18     17     59 
    93     93     60     18     17     58 
    94     94     55     15     14     52 
    95     95     64     20     21     22 
    96     96     67     21     20     64 
    97     97     37      6      5      4 
    98     98     34      5      6      7 
    99     99     37      6      5     34 
   100    100     46     11     10      9 
   101    101     33      4      5      6 
   102    102     69     22     21     66 
   103    103     28      2      1     26 
   104    104     28      2      1     25 
   105    105     29      2      1     25 
   106    106     42      9     10     11 
   107    107     56     16     15     14 
   108    108     35      5      4     33 
   109    109     49     12     11     10 
   110    110     53     14     13     51 
   111    111     59     17     18     19 
   112    112     69     22     23     24 
   113    113     48     12     11     10 
   114    114     42      9      8     41 
   115    115     43      9      8     40 
   116    116     55     15     14     13 
   117    117     71     23     22     21 
   118    118     30      3      2     28 
   119    119     36      6      7      8 
   120    120     54     15     14     13 
   121    121     39      7      6      5 
   122    122     64     20     19     18 
   123    123     60     18     17     16 
   124    124     39      7      6     37 
   125    125     65     20     21     22 
   126    126     65     20     19     18 
   127    127     48     12     11     46 
   128    128     44     10      9     42 
   129    129     36      6      5     35 
   130    130     29      2      1     27 
   131    131     67     21     20     19 
   132    132     47     11     10     45 
   133    133     64     20     19     63 
   134    134     55     15     14     53 
   135    135     48     12     13     14 
   136    136     70     23     22     68 
   137    137     38      7      6     37 
   138    138     34      5      4      3 
   139    139     44     10     11     12 
   140    140     33      4      3      2 
   141    141     30      3      4      5 
   142    142     47     11     10      9 
   143    143     37      6      5     35 
   144    144     41      8      7     39 
   145    145     74     24     23     71 
   146    146     49     12     11     46 
   147    147     48     12     11     47 
   148    148     69     22     21     67 
   149    149     46     11     10     45 
   150    150     35      5      6      7 
   151    151     72     24     23     70 
   152    152     41      8      7     38 
   153    153     40      8      7     39 
   154    154     61     18     17     16 
   155    155     31      3      4      5 
   156    156     58     17     18     19 
   157    157     74     24     23     70 
   158    158     66     21     22     23 
   159    159     43      9      8      7 
   160    160     69     22     21     20 
   161    161     70     23     22     21 
   162    162     29      2      3      4 
   163    163     51     13     12     11 
   164    164     66     21     20     19 
   165    165     74     24     23     22 
   166    166     40      8      9     10 
   167    167     52     14     15     16 
   168    168     52     14     13     51 
   169    169     53     14     13     50 
   170    170     51     13     12     49 
   171    171     73     24     23     22 
   172    172     45     10      9      8 
   173    173     66     21     20     64 
   174    174     44     10      9      8 
   175    175     40      8      7      6 
   176    176     53     14     13     12 
   177    177     62     19     18     60 
   178    178     65     20     19     63 
   179    179     56     16     17     18 
   180    180     32      4      3     30 
   181    181     68     22     21     67 
   182    182     50     13     14     15 
   183    183     36      6      5     34 
   184    184     63     19     18     61 
   185    185     50     13     12     48 
   186    186     46     11     12     13 
   187    187     60     18     17     59 
   188    188     61     18     17     58 
   189    189     67     21     22     23 
   190    190     41      8      9     10 
   191    191     54     15     14     53 
   192    192     43      9      8     41 
   193    193     44     10      9     43 
   194    194     50     13     12     11 
   195    195     40      8      7     38 
   196    196     56     16     15     55 
   197    197     71     23     22     69 
   198    198     34      5      4     32 
   199    199     37      6      7      8 
   200    200     64     20     19     62 
   201    201     36      6      5      4 
   202    202     46     11     10     44 
   203    203     30      3      2      1 
   204    204     49     12     11     47 
   205    205     72     24     23     71 
   206    206     73     24     23     70 
   207    207     57     16     17     18 

Impropers

     1      1      1     26     25      2 
     2      2      1      2     27     25 
     3      3      2      1      3     28 
     4      4      2      1      3     29 
     5      5      3      2      4     30 
     6      6      3      2      4     31 
     7      7      4      3      5     32 
     8      8      4     33      3      5 
     9      9      5     34      4      6 
    10     10      5     35      4      6 
    11     11      6     36      5      7 
    12     12      6      5     37      7 
    13     13      7      8     38      6 
    14     14      7      8     39      6 
    15     15      8      9      7     40 
    16     16      8     41      9      7 
    17     17      9     42     10      8 
    18     18      9     10     43      8 
    19     19     10      9     11     44 
    20     20     10      9     11     45 
    21     21     11     10     12     46 
    22     22     11     10     12     47 
    23     23     12     11     13     48 
    24     24     12     49     11     13 
    25     25     13     50     12     14 
    26     26     13     51     12     14 
    27     27     14     52     13     15 
    28     28     14     13     53     15 
    29     29     15     16     54     14 
    30     30     15     16     55     14 
    31     31     16     17     15     56 
    32     32     16     57     17     15 
    33     33     17     58     18     16 
    34     34     17     18     59     16 
    35     35     18     17     19     60 
    36     36     18     17     19     61 
    37     37     19     18     20     62 
    38     38     19     18     20     63 
    39     39     20     19     21     64 
    40     40     20     65     19     21 
    41     41     21     66     20     22 
    42     42     21     67     20     22 
    43     43     22     68     21     23 
    44     44     22     21     69     23 
    45     45     23     24     70     22 
    46     46     23     24     71     22 
    47     47     24     73     72     23 
    48     48     24     74     72     23 

