#OleylThiolate

54 atoms
4 atom types

53 bonds
6 bond types

102 angles
9 angle types

142 dihedrals
10 dihedral types

34 impropers
2 improper types

-3.04420957205843  1.20522949095528  xlo xhi
-0.906152000159893  4.5831164223977  ylo yhi
-1.60759548739869  20.4865549855264  zlo zhi

Masses

1  12.011
2  12.011
3  32.06
4  1.008

Pair Coeffs

1  0.066  3.5
2  0.076  3.55
3  0.355  3.55
4  0.03  2.5

Bond Coeffs

1  268.0  1.529
2  317.0  1.51
3  549.0  1.34
4  340.0  1.77
5  340.0  1.09
6  340.0  1.08

Angle Coeffs

1  58.35  112.7
2  63.0  111.1
3  70.0  124.0
4  50.0  108.6
5  37.5  110.7
6  35.0  117.0
7  35.0  120.0
8  35.0  109.5
9  33.0  107.8

Dihedral Coeffs

1  1.3  -0.2  0.2  0.0
2  0.346  0.405  -0.904  0.0
3  0.0  14.0  0.0  0.0
4  1.262  -0.198  0.465  0.0
5  0.0  0.0  0.3  0.0
6  0.0  0.0  0.452  0.0
7  0.0  0.0  -0.372  0.0
8  0.0  0.0  0.366  0.0
9  0.0  0.0  0.318  0.0
10  0.0  -8.0  0.0  0.0

Improper Coeffs

1  0.0  -1.0  2.0
2  2.5  -1.0  2.0

Atoms # full

1  1  1  -0.2094   1.04278093779928e-14    2.31164264344562e-15    19.5253687997666 
2  1  1  -0.1575   0.141567801356076    1.16537014035046    18.559826986276 
3  1  1  -0.1566  -0.494617450066774    0.843323650720333    17.2088687036895 
4  1  1  -0.1572  -0.350830254330467    2.01339092757416    16.2383018332586 
5  1  1  -0.1573  -0.990195178436653    1.68761688187642    14.8886753191916 
6  1  1  -0.158  -0.847975420100658    2.85835385839954    13.9186869315599 
7  1  1  -0.1549  -1.48512944942255    2.53327327550265    12.5686473150885 
8  1  1  -0.1234  -1.3978836249661    3.73149257304405    11.6221944564557 
9  1  2  -0.1823  -2.02270100794004    3.42134666108512    10.2951376783829 
10  1  2  -0.1596  -1.55283508098164    3.89694530733311    9.13239812948533 
11  1  1  -0.129  -2.17324498765684    3.58866013081583    7.80193642611354 
12  1  1  -0.1536  -1.15685665577506    2.92841445229855    6.87227939310953 
13  1  1  -0.1587  -1.78463771773167    2.61100493580858    5.51713025386683 
14  1  1  -0.1581  -0.771541521930251    1.95208320478282    4.58386574209393 
15  1  1  -0.1566  -1.40280683164759    1.63456074903061    3.22964367472811 
16  1  1  -0.1684  -0.391046680568658    0.976035610669242    2.29351345209087 
17  1  1  -0.1505  -1.0219782851167    0.65867455508607    0.934812379160703 
18  1  1  -0.0859   0    0    0 
19  1  3  -0.8978  -0.799004136026039   -0.362294681176321   -1.60759548739869 
20  1  4   0.0699   0.461334234274768    0.245995130420824    20.4865549855264 
21  1  4   0.0699   0.490583518610684   -0.89595138106483    19.1314509483869 
22  1  4   0.0699  -1.05460211392274   -0.233391391925957    19.7030047507578 
23  1  4   0.0768   1.20522949095528    1.39501689333843    18.4262270917362 
24  1  4   0.0768  -0.332812766347746    2.05291591491808    18.9947769014756 
25  1  4   0.0789  -1.5577583924899    0.613149595189122    17.3497797454996 
26  1  4   0.0789  -0.0218666456343779   -0.0499825629675034    16.7840439162827 
27  1  4   0.0775   0.711221133353061    2.24568400884281    16.0950658827636 
28  1  4   0.0775  -0.824592904711708    2.90531630188371    16.6628858917988 
29  1  4   0.0793  -2.05299326750115    1.45614617154599    15.0327943569347 
30  1  4   0.0793  -0.517077222011526    0.794821683882833    14.4629468933757 
31  1  4   0.0772   0.213644288230104    3.09426073668084    13.7766009045788 
32  1  4   0.0772  -1.32431372649948    3.74882488054843    14.3474349852817 
33  1  4   0.0814  -2.53728004897896    2.25915578066585    12.7211016235795 
34  1  4   0.0814  -0.986163814069539    1.66329534697272    12.1238723434371 
35  1  4   0.0821  -0.346857667772024    4.01876634438432    11.4948998234022 
36  1  4   0.0821  -1.92544448274308    4.5831164223977    12.065812089732 
37  1  4   0.1197  -2.90056687683854    2.77885139672522    10.2945759861398 
38  1  4   0.1163  -0.677414315250905    4.54335864952704    9.12631056337998 
39  1  4   0.0834  -2.53277616209004    4.52463360153885    7.35818298430897 
40  1  4   0.0834  -3.04420957205843    2.93288033223259    7.92173782797633 
41  1  4   0.0787  -0.780556458012089    2.00397353638139    7.32926234874552 
42  1  4   0.0787  -0.294873882665138    3.59313506935089    6.7320416185005 
43  1  4   0.0765  -2.15958873908666    3.53526332168437    5.06012480814093 
44  1  4   0.0765  -2.64396085466257    1.94397997937499    5.65812523083407 
45  1  4   0.0736  -0.395791517758687    1.02899345847401    5.04239883569199 
46  1  4   0.0736   0.087823176975717    2.61881643528238    4.44409900312547 
47  1  4   0.0745  -1.7797764857118    2.55861574819844    2.77524526867056 
48  1  4   0.0745  -2.26163605001661    0.967068615162589    3.37329569699023 
49  1  4   0.0642  -0.0146437737304434    0.0531086539543929    2.75076450916215 
50  1  4   0.0642   0.467404263555368    1.64410756607592    2.15522852546596 
51  1  4   0.0786  -1.40301187172742    1.58950490367333    0.494292675942457 
52  1  4   0.0786  -1.88478845538622   -0.00297087356791167    1.08966018902825 
53  1  4   0.0319   0.385515538192434   -0.906152000159893    0.483556586573304 
54  1  4   0.0319   0.860968237872804    0.6708519230805   -0.107798355615446 

Bonds

1  1  2  1
2  1  3  2
3  1  4  3
4  1  5  4
5  1  6  5
6  1  7  6
7  1  8  7
8  2  9  8
9  3  10  9
10  2  11  10
11  1  12  11
12  1  13  12
13  1  14  13
14  1  15  14
15  1  16  15
16  1  17  16
17  1  18  17
18  4  19  18
19  5  20  1
20  5  21  1
21  5  22  1
22  5  23  2
23  5  24  2
24  5  25  3
25  5  26  3
26  5  27  4
27  5  28  4
28  5  29  5
29  5  30  5
30  5  31  6
31  5  32  6
32  5  33  7
33  5  34  7
34  5  35  8
35  5  36  8
36  6  37  9
37  6  38  10
38  5  39  11
39  5  40  11
40  5  41  12
41  5  42  12
42  5  43  13
43  5  44  13
44  5  45  14
45  5  46  14
46  5  47  15
47  5  48  15
48  5  49  16
49  5  50  16
50  5  51  17
51  5  52  17
52  5  53  18
53  5  54  18

Angles

1  1  1  2  3
2  1  2  3  4
3  1  3  4  5
4  1  4  5  6
5  1  5  6  7
6  1  6  7  8
7  2  7  8  9
8  3  8  9  10
9  3  9  10  11
10  2  10  11  12
11  1  11  12  13
12  1  12  13  14
13  1  13  14  15
14  1  14  15  16
15  1  15  16  17
16  1  16  17  18
17  4  17  18  19
18  5  2  1  20
19  5  2  1  21
20  5  2  1  22
21  5  1  2  23
22  5  1  2  24
23  5  2  3  25
24  5  2  3  26
25  5  3  4  27
26  5  3  4  28
27  5  4  5  29
28  5  4  5  30
29  5  5  6  31
30  5  5  6  32
31  5  6  7  33
32  5  6  7  34
33  5  7  8  35
34  5  7  8  36
35  6  8  9  37
36  7  9  10  38
37  8  10  11  39
38  8  10  11  40
39  5  11  12  41
40  5  11  12  42
41  5  12  13  43
42  5  12  13  44
43  5  13  14  45
44  5  13  14  46
45  5  14  15  47
46  5  14  15  48
47  5  15  16  49
48  5  15  16  50
49  5  16  17  51
50  5  16  17  52
51  5  17  18  53
52  5  17  18  54
53  9  47  15  48
54  6  11  10  38
55  5  12  11  40
56  9  27  4  28
57  9  41  12  42
58  8  19  18  54
59  5  17  16  50
60  9  20  1  21
61  5  5  4  27
62  5  7  6  32
63  5  7  6  31
64  5  6  5  30
65  5  5  4  28
66  9  33  7  34
67  9  39  11  40
68  5  8  7  33
69  5  18  17  51
70  5  12  11  39
71  5  15  14  46
72  9  45  14  46
73  9  20  1  22
74  5  13  12  42
75  9  29  5  30
76  9  51  17  52
77  8  9  8  36
78  9  35  8  36
79  5  16  15  47
80  9  49  16  50
81  5  4  3  25
82  5  18  17  52
83  5  4  3  26
84  5  15  14  45
85  5  8  7  34
86  9  53  18  54
87  9  25  3  26
88  5  16  15  48
89  5  14  13  43
90  9  43  13  44
91  9  31  6  32
92  5  3  2  23
93  8  19  18  53
94  8  9  8  35
95  7  10  9  37
96  5  17  16  49
97  9  23  2  24
98  9  21  1  22
99  5  3  2  24
100  5  13  12  41
101  5  6  5  29
102  5  14  13  44

Dihedrals

1  1  4  3  2  1
2  1  5  4  3  2
3  1  6  5  4  3
4  1  7  6  5  4
5  1  8  7  6  5
6  1  9  8  7  6
7  2  10  9  8  7
8  3  11  10  9  8
9  2  12  11  10  9
10  1  13  12  11  10
11  1  14  13  12  11
12  1  15  14  13  12
13  1  16  15  14  13
14  1  17  16  15  14
15  1  18  17  16  15
16  4  19  18  17  16
17  5  20  1  2  3
18  5  50  16  15  48
19  6  51  17  18  19
20  3  38  10  9  8
21  5  54  18  17  16
22  5  25  3  4  5
23  5  28  4  3  2
24  5  29  5  4  28
25  5  30  5  4  27
26  5  43  13  12  41
27  5  47  15  14  13
28  5  50  16  15  14
29  7  35  8  9  10
30  5  51  17  16  15
31  5  23  2  1  21
32  5  48  15  16  17
33  5  24  2  1  20
34  5  50  16  17  18
35  5  47  15  14  45
36  5  26  3  2  1
37  5  33  7  6  31
38  5  23  2  3  4
39  5  32  6  7  8
40  5  27  4  3  25
41  5  32  6  5  30
42  5  51  17  16  50
43  5  52  17  16  49
44  5  35  8  7  33
45  5  44  13  12  41
46  5  43  13  12  42
47  3  37  9  10  11
48  5  45  14  13  44
49  5  54  18  17  52
50  5  49  16  15  14
51  5  49  16  17  18
52  7  36  8  9  10
53  5  49  16  15  47
54  5  30  5  4  3
55  8  34  7  8  9
56  5  22  1  2  3
57  5  33  7  6  5
58  5  51  17  16  49
59  5  40  11  12  13
60  5  47  15  16  17
61  5  24  2  1  22
62  5  46  14  13  43
63  9  37  9  8  35
64  5  25  3  2  23
65  5  54  18  17  51
66  5  53  18  17  52
67  9  39  11  10  38
68  5  44  13  14  15
69  9  40  11  10  38
70  5  52  17  16  15
71  5  21  1  2  3
72  5  27  4  5  6
73  5  36  8  7  33
74  5  35  8  7  34
75  8  41  12  11  10
76  7  39  11  10  9
77  5  42  12  11  39
78  5  41  12  11  40
79  5  48  15  14  46
80  5  48  15  14  13
81  5  34  7  6  32
82  5  41  12  11  39
83  5  42  12  11  40
84  5  45  14  15  16
85  5  24  2  3  4
86  5  28  4  3  25
87  5  27  4  3  26
88  5  28  4  5  6
89  5  30  5  6  7
90  5  39  11  12  13
91  5  24  2  1  21
92  5  23  2  1  22
93  5  31  6  7  8
94  5  34  7  6  5
95  5  27  4  3  2
96  5  32  6  5  4
97  5  29  5  6  7
98  5  45  14  13  43
99  5  53  18  17  16
100  10  37  9  8  7
101  3  38  10  9  37
102  5  35  8  7  6
103  5  26  3  2  24
104  5  31  6  5  29
105  8  42  12  11  10
106  5  43  13  12  11
107  5  42  12  13  14
108  9  37  9  8  36
109  5  36  8  7  6
110  5  29  5  4  27
111  5  48  15  14  45
112  5  47  15  14  46
113  5  32  6  5  29
114  5  31  6  5  30
115  8  33  7  8  9
116  5  53  18  17  51
117  5  26  3  4  5
118  6  52  17  18  19
119  5  26  3  2  23
120  5  25  3  2  24
121  5  36  8  7  34
122  5  29  5  4  3
123  5  44  13  12  42
124  5  30  5  4  28
125  5  23  2  1  20
126  5  45  14  13  12
127  7  40  11  10  9
128  5  25  3  2  1
129  5  34  7  6  31
130  5  33  7  6  32
131  5  41  12  13  14
132  5  28  4  3  26
133  5  44  13  12  11
134  5  52  17  16  50
135  5  31  6  5  4
136  5  43  13  14  15
137  5  46  14  13  12
138  5  46  14  15  16
139  10  38  10  11  12
140  5  46  14  13  44
141  5  50  16  15  47
142  5  49  16  15  48

Impropers

1  1  1  2  20  21
2  1  1  2  20  22
3  1  2  1  3  23
4  1  2  1  3  24
5  1  3  25  2  4
6  1  3  26  4  2
7  1  4  27  5  3
8  1  4  3  28  5
9  1  5  4  29  6
10  1  5  4  30  6
11  1  6  7  5  31
12  1  6  5  7  32
13  1  7  33  6  8
14  1  7  34  6  8
15  1  8  9  35  7
16  1  8  9  36  7
17  2  9  10  37  8
18  2  10  9  11  38
19  1  11  10  12  39
20  1  11  10  12  40
21  1  12  41  11  13
22  1  12  42  11  13
23  1  13  43  12  14
24  1  13  12  44  14
25  1  14  13  45  15
26  1  14  13  46  15
27  1  15  16  47  14
28  1  15  16  14  48
29  1  16  49  17  15
30  1  16  17  50  15
31  1  17  18  51  16
32  1  17  18  52  16
33  1  18  17  19  53
34  1  18  17  19  54
