#C20

62 atoms
2 atom types

61 bonds
2 bond types

120 angles
3 angle types

171 dihedrals
2 dihedral types

40 impropers
1 improper types

-0.888437713168441  0.89036265936117  xlo xhi
-2.10744375391638  0.831765402625253  ylo yhi
0.0187478020430307  25.6111393649951  zlo zhi

Masses

1  12.011
2  1.008

Pair Coeffs

1  0.066  3.5
2  0.03  2.5

Bond Coeffs

1  268.0  1.529
2  340.0  1.09

Angle Coeffs

1  58.35  112.7
2  37.5  110.7
3  33.0  107.8

Dihedral Coeffs

1  1.3  -0.2  0.2  0.0
2  0.0  0.0  0.3  0.0

Improper Coeffs

1  0.0  -1.0  2.0

Atoms # full

1  1  1  -0.2388   0.000705912469441405   -0.636607653778957    0.890229865393003 
2  1  1  -0.1796   0.00385145330044925    0.181153569321536    2.17031489677415 
3  1  1  -0.1788   0.00295021728386814   -0.723173380315751    3.40068343377164 
4  1  1  -0.1796   0.00431025940029702    0.0983605069173186    4.6866692277885 
5  1  1  -0.1795   0.0052000737609535   -0.811676391904419    5.91118795121143 
6  1  1  -0.1796   0.00476570189027665    0.00794124380965056    7.1972156804022 
7  1  1  -0.1797   0.00385439453278531   -0.90523834000766    8.41781328261111 
8  1  1  -0.1797   0.00522028070092871   -0.0847896131134097    9.70211901922236 
9  1  1  -0.1798   0.00610811423970001   -0.997795423426258    10.9214145481597 
10  1  1  -0.1797   0.00567193531627417   -0.177880872284093    12.2048793224224 
11  1  1  -0.1801   0.00476355619528506   -1.09318117325744    13.4232717828741 
12  1  1  -0.1797   0.00252479901388101   -0.275462911545028    14.7093306898175 
13  1  1  -0.1795   0.003417502685214   -1.19012692837553    15.9273122448484 
14  1  1  -0.1798   0.00297666900113151   -0.372951200882196    17.2125266828942 
15  1  1  -0.1796   0.00206554783406654   -1.28602123175355    18.4330542985518 
16  1  1  -0.1796  -0.000178803977017597   -0.466390966438335    19.7190784071766 
17  1  1  -0.1794   0.000710924449595967   -1.3764784281582    20.9436294320848 
18  1  1  -0.1788   0.000263306844775623   -0.553566713074415    22.2287394654346 
19  1  1  -0.1795   0.00294803433430946   -1.45574658961145    23.4601008482585 
20  1  1  -0.2387   0.000705912469441771   -0.636607653778858    24.7393189896216 
21  1  2   0.0807   9.4174223570919e-05    0.0254328702341886    0.0187478020430307 
22  1  2   0.0807  -0.888087420507466   -1.27316988431004    0.836281608543525 
23  1  2   0.0807   0.887690187558261   -1.27538834806776    0.833335236041247 
24  1  2   0.0884  -0.878305073893938    0.831765402625253    2.18641361701877 
25  1  2   0.0884   0.888170601489841    0.82841401206657    2.18421385368077 
26  1  2   0.0895   0.885620951728733   -1.37447351685008    3.38027660146183 
27  1  2   0.0895  -0.88092145146049   -1.37304042932916    3.38014208528457 
28  1  2   0.0894  -0.878708415022523    0.74883264762741    4.71116578633448 
29  1  2   0.0894   0.887764552902107    0.748411963189372    4.70946707619134 
30  1  2   0.0896   0.889133803523337   -1.46053459789798    5.8880313883581 
31  1  2   0.0896  -0.877355697794704   -1.46259793421116    5.88894373500105 
32  1  2   0.0898  -0.878174656880055    0.658102376832043    7.22072408871832 
33  1  2   0.0898   0.888630870193106    0.657147067987326    7.22292601713271 
34  1  2   0.0899   0.886682711499347   -1.55592071831866    8.39345149865477 
35  1  2   0.0899  -0.880189704966199   -1.55449529175461    8.39332268749205 
36  1  2   0.0899  -0.878279996302544    0.564739801293812    9.72721900636576 
37  1  2   0.0899   0.888534460067781    0.56519475101263    9.72496007263796 
38  1  2   0.0899   0.89036265936117   -1.6461740248624    10.8979508095035 
39  1  2   0.0899  -0.876548123693972   -1.64831124777381    10.8977247526729 
40  1  2   0.0899  -0.878029208773772    0.471818532070674    12.2286845679579 
41  1  2   0.0899   0.888540896266838    0.472876886638197    12.2307873191129 
42  1  2   0.0898   0.887922903324343   -1.74325756298366    13.3985220596614 
43  1  2   0.0898  -0.878714300001512   -1.7432886253579    13.3969498446219 
44  1  2   0.0899  -0.881008989305766    0.373360657131222    14.7325083973777 
45  1  2   0.0899   0.885569910188697    0.375069844195801    14.7318220734676 
46  1  2   0.0898   0.886164098786649   -1.84046164261659    15.9003552824021 
47  1  2   0.0898  -0.879638942873418   -1.84008464953057    15.9020802578419 
48  1  2   0.0898  -0.879882300755753    0.278027179916292    17.2355128059426 
49  1  2   0.0898   0.887109384890057    0.276171690102558    17.2359160628447 
50  1  2   0.0898   0.886339239493959   -1.93422192688767    18.4082902204177 
51  1  2   0.0898  -0.880782296037334   -1.93612171943605    18.4067263630726 
52  1  2   0.0897  -0.884797283096612    0.181713322688268    19.7391583602602 
53  1  2   0.0897   0.882168285899612    0.185306361217007    19.7408275384956 
54  1  2   0.0895   0.885023899865674   -2.02510057364861    20.9191344940326 
55  1  2   0.0895  -0.881896797223727   -2.02718721044392    20.9188761454572 
56  1  2   0.0895  -0.883803541271368    0.0954969941286884    22.2482051545761 
57  1  2   0.0895   0.881909837931105    0.0991623172894092    22.2474579521187 
58  1  2   0.0884   0.887894603495406   -2.10249133643579    23.4450847673744 
59  1  2   0.0884  -0.87837211944913   -2.10744375391638    23.4454689286291 
60  1  2   0.0808   0.885712588086    0.00576675793052983    24.7931234550046 
61  1  2   0.0808   0.00515104134994849   -1.29733499036553    25.6111393649951 
62  1  2   0.0808  -0.888437713168441   -0.000607423796806561    24.7932486192356 

Bonds

1  1  2  1
2  1  3  2
3  1  4  3
4  1  5  4
5  1  6  5
6  1  7  6
7  1  8  7
8  1  9  8
9  1  10  9
10  1  11  10
11  1  12  11
12  1  13  12
13  1  14  13
14  1  15  14
15  1  16  15
16  1  17  16
17  1  18  17
18  1  19  18
19  1  20  19
20  2  21  1
21  2  22  1
22  2  23  1
23  2  24  2
24  2  25  2
25  2  26  3
26  2  27  3
27  2  28  4
28  2  29  4
29  2  30  5
30  2  31  5
31  2  32  6
32  2  33  6
33  2  34  7
34  2  35  7
35  2  36  8
36  2  37  8
37  2  38  9
38  2  39  9
39  2  40  10
40  2  41  10
41  2  42  11
42  2  43  11
43  2  44  12
44  2  45  12
45  2  46  13
46  2  47  13
47  2  48  14
48  2  49  14
49  2  50  15
50  2  51  15
51  2  52  16
52  2  53  16
53  2  54  17
54  2  55  17
55  2  56  18
56  2  57  18
57  2  58  19
58  2  59  19
59  2  60  20
60  2  61  20
61  2  62  20

Angles

1  1  1  2  3
2  1  2  3  4
3  1  3  4  5
4  1  4  5  6
5  1  5  6  7
6  1  6  7  8
7  1  7  8  9
8  1  8  9  10
9  1  9  10  11
10  1  10  11  12
11  1  11  12  13
12  1  12  13  14
13  1  13  14  15
14  1  14  15  16
15  1  15  16  17
16  1  16  17  18
17  1  17  18  19
18  1  18  19  20
19  2  2  1  21
20  2  2  1  22
21  2  2  1  23
22  2  1  2  24
23  2  1  2  25
24  2  2  3  26
25  2  2  3  27
26  2  3  4  28
27  2  3  4  29
28  2  4  5  30
29  2  4  5  31
30  2  5  6  32
31  2  5  6  33
32  2  6  7  34
33  2  6  7  35
34  2  7  8  36
35  2  7  8  37
36  2  8  9  38
37  2  8  9  39
38  2  9  10  40
39  2  9  10  41
40  2  10  11  42
41  2  10  11  43
42  2  11  12  44
43  2  11  12  45
44  2  12  13  46
45  2  12  13  47
46  2  13  14  48
47  2  13  14  49
48  2  14  15  50
49  2  14  15  51
50  2  15  16  52
51  2  15  16  53
52  2  16  17  54
53  2  16  17  55
54  2  17  18  56
55  2  17  18  57
56  2  18  19  58
57  2  18  19  59
58  2  19  20  60
59  2  19  20  61
60  2  19  20  62
61  2  18  17  55
62  2  16  15  50
63  2  12  11  42
64  3  50  15  51
65  3  44  12  45
66  2  10  9  39
67  2  18  17  54
68  3  61  20  62
69  2  19  18  57
70  3  32  6  33
71  2  7  6  32
72  3  56  18  57
73  2  6  5  30
74  2  3  2  25
75  2  5  4  28
76  3  58  19  59
77  2  9  8  37
78  3  40  10  41
79  2  9  8  36
80  2  11  10  41
81  2  17  16  53
82  3  52  16  53
83  2  15  14  49
84  2  11  10  40
85  2  14  13  47
86  3  36  8  37
87  2  17  16  52
88  2  8  7  35
89  2  4  3  27
90  3  21  1  23
91  3  54  17  55
92  3  24  2  25
93  2  13  12  45
94  2  20  19  58
95  2  6  5  31
96  2  14  13  46
97  2  4  3  26
98  2  20  19  59
99  2  8  7  34
100  3  34  7  35
101  2  5  4  29
102  3  60  20  61
103  3  28  4  29
104  3  26  3  27
105  2  10  9  38
106  3  42  11  43
107  3  22  1  23
108  2  16  15  51
109  3  60  20  62
110  3  46  13  47
111  3  48  14  49
112  2  15  14  48
113  2  13  12  44
114  2  12  11  43
115  2  19  18  56
116  3  21  1  22
117  2  3  2  24
118  2  7  6  33
119  3  30  5  31
120  3  38  9  39

Dihedrals

1  1  4  3  2  1
2  1  5  4  3  2
3  1  6  5  4  3
4  1  7  6  5  4
5  1  8  7  6  5
6  1  9  8  7  6
7  1  10  9  8  7
8  1  11  10  9  8
9  1  12  11  10  9
10  1  13  12  11  10
11  1  14  13  12  11
12  1  15  14  13  12
13  1  16  15  14  13
14  1  17  16  15  14
15  1  18  17  16  15
16  1  19  18  17  16
17  1  20  19  18  17
18  2  21  1  2  3
19  2  60  20  19  18
20  2  27  3  4  5
21  2  61  20  19  59
22  2  45  12  11  10
23  2  40  10  9  39
24  2  28  4  3  2
25  2  42  11  12  13
26  2  35  7  8  9
27  2  54  17  16  53
28  2  51  15  14  48
29  2  50  15  14  49
30  2  54  17  16  15
31  2  41  10  11  12
32  2  62  20  19  59
33  2  28  4  3  26
34  2  29  4  3  26
35  2  28  4  3  27
36  2  38  9  8  7
37  2  23  1  2  3
38  2  31  5  6  7
39  2  60  20  19  59
40  2  61  20  19  58
41  2  38  9  10  11
42  2  48  14  13  12
43  2  41  10  9  8
44  2  53  16  17  18
45  2  26  3  2  1
46  2  35  7  6  5
47  2  32  6  7  8
48  2  62  20  19  58
49  2  55  17  16  52
50  2  46  13  12  44
51  2  32  6  5  30
52  2  40  10  9  38
53  2  58  19  18  56
54  2  59  19  18  57
55  2  31  5  4  29
56  2  60  20  19  58
57  2  40  10  9  8
58  2  33  6  5  31
59  2  30  5  4  29
60  2  31  5  4  28
61  2  33  6  7  8
62  2  51  15  14  49
63  2  49  14  15  16
64  2  44  12  11  43
65  2  36  8  9  10
66  2  30  5  4  3
67  2  26  3  2  25
68  2  27  3  2  24
69  2  37  8  7  6
70  2  34  7  8  9
71  2  37  8  7  35
72  2  59  19  18  56
73  2  58  19  18  57
74  2  24  2  1  22
75  2  51  15  16  17
76  2  43  11  10  41
77  2  25  2  1  21
78  2  42  11  10  40
79  2  47  13  14  15
80  2  57  18  17  55
81  2  29  4  3  2
82  2  55  17  16  53
83  2  43  11  10  9
84  2  26  3  4  5
85  2  45  12  11  43
86  2  39  9  8  7
87  2  53  16  15  51
88  2  36  8  7  35
89  2  37  8  7  34
90  2  52  16  15  14
91  2  47  13  12  45
92  2  55  17  16  15
93  2  50  15  14  48
94  2  44  12  11  42
95  2  49  14  13  47
96  2  43  11  12  13
97  2  49  14  13  12
98  2  48  14  13  46
99  2  51  15  14  13
100  2  54  17  16  52
101  2  41  10  9  39
102  2  57  18  19  20
103  2  33  6  5  30
104  2  27  3  2  1
105  2  29  4  5  6
106  2  24  2  3  4
107  2  31  5  4  3
108  2  46  13  12  45
109  2  47  13  12  44
110  2  28  4  5  6
111  2  33  6  5  4
112  2  30  5  6  7
113  2  43  11  10  40
114  2  42  11  10  41
115  2  24  2  1  21
116  2  49  14  13  46
117  2  48  14  13  47
118  2  34  7  6  5
119  2  34  7  6  32
120  2  32  6  5  4
121  2  54  17  18  19
122  2  50  15  16  17
123  2  56  18  17  54
124  2  46  13  14  15
125  2  25  2  1  23
126  2  45  12  11  42
127  2  26  3  2  24
128  2  22  1  2  3
129  2  39  9  10  11
130  2  36  8  7  6
131  2  53  16  15  14
132  2  40  10  11  12
133  2  24  2  1  23
134  2  25  2  1  22
135  2  38  9  8  37
136  2  45  12  13  14
137  2  47  13  12  11
138  2  52  16  17  18
139  2  44  12  13  14
140  2  35  7  6  32
141  2  34  7  6  33
142  2  46  13  12  11
143  2  30  5  4  28
144  2  57  18  17  16
145  2  39  9  8  36
146  2  29  4  3  27
147  2  36  8  7  34
148  2  41  10  9  38
149  2  39  9  8  37
150  2  48  14  15  16
151  2  58  19  18  17
152  2  55  17  18  19
153  2  42  11  10  9
154  2  25  2  3  4
155  2  52  16  15  51
156  2  53  16  15  50
157  2  32  6  5  31
158  2  62  20  19  18
159  2  61  20  19  18
160  2  50  15  14  13
161  2  52  16  15  50
162  2  27  3  2  25
163  2  38  9  8  36
164  2  37  8  9  10
165  2  35  7  6  33
166  2  56  18  17  55
167  2  57  18  17  54
168  2  44  12  11  10
169  2  59  19  18  17
170  2  56  18  17  16
171  2  56  18  19  20

Impropers

1  1  1  2  21  22
2  1  1  2  21  23
3  1  2  1  3  24
4  1  2  25  3  1
5  1  3  26  4  2
6  1  3  2  27  4
7  1  4  3  28  5
8  1  4  5  3  29
9  1  5  4  30  6
10  1  5  4  6  31
11  1  6  5  7  32
12  1  6  33  5  7
13  1  7  34  6  8
14  1  7  35  6  8
15  1  8  9  36  7
16  1  8  9  37  7
17  1  9  10  38  8
18  1  9  10  39  8
19  1  10  9  11  40
20  1  10  41  11  9
21  1  11  42  12  10
22  1  11  10  43  12
23  1  12  11  44  13
24  1  12  13  11  45
25  1  13  12  46  14
26  1  13  12  14  47
27  1  14  13  15  48
28  1  14  49  13  15
29  1  15  50  14  16
30  1  15  51  14  16
31  1  16  17  52  15
32  1  16  17  53  15
33  1  17  18  54  16
34  1  17  18  55  16
35  1  18  17  19  56
36  1  18  57  19  17
37  1  19  58  20  18
38  1  19  18  59  20
39  1  20  60  19  61
40  1  20  60  19  62
