#C20: Icosanoate

61 atoms
4 atom types

60 bonds
4 bond types

117 angles
7 angle types

168 dihedrals
5 dihedral types

39 impropers
2 improper types

-0.904947775545612  0.916321130427957  xlo xhi
-1.43205305581616  1.47378440896176  ylo yhi
-1.02443899744818  24.7543885662301  zlo zhi

Masses

1  12.011
2  12.011
3  15.999
4  1.008

Pair Coeffs

1  0.066  3.5
2  0.07  3.55
3  0.21  2.96
4  0.03  2.5

Bond Coeffs

1  268.0  1.529
2  317.0  1.522
3  656.0  1.25
4  340.0  1.09

Angle Coeffs

1  58.35  112.7
2  63.0  111.1
3  70.0  117.0
4  37.5  110.7
5  33.0  107.8
6  80.0  126.0
7  35.0  109.5

Dihedral Coeffs

1  1.3  -0.2  0.2  0.0
2  -2.06  -0.313  0.315  0.0
3  0.0  0.0  0.0  0.0
4  0.0  0.0  0.3  0.0
5  0.0  0.0  -0.1  0.0

Improper Coeffs

1  10.5  -1.0  2.0
2  0.0  -1.0  2.0

Atoms # full

1  1  1  -0.2092   5.04605395600766e-16    6.4659360399943e-14    23.8825630473302 
2  1  1  -0.1577   0.00889597057783858    0.816803164111102    22.6030797716264 
3  1  1  -0.1569   0.00128512941668563   -0.0874163074638318    21.3732574979536 
4  1  1  -0.1575   0.012034440981625    0.734510016471989    20.088752742329 
5  1  1  -0.1578   0.00254120389340604   -0.175724495085088    18.8645687999331 
6  1  1  -0.1577   0.0150721703896841    0.644272700829678    17.5800313214723 
7  1  1  -0.1579   0.00373971515706581   -0.26863488796628    16.3600602207173 
8  1  1  -0.1579   0.0180770639707898    0.552172411362998    15.0772388761035 
9  1  1  -0.158   0.00493502537727886   -0.361566547914831    13.8590972920011 
10  1  1  -0.1581   0.0210663547732628    0.458677024908967    12.577114962344 
11  1  1  -0.1581   0.00609595292420798   -0.455869167690552    11.3596317566815 
12  1  1  -0.1582   0.0204050401407406    0.363026318882448    10.0767761590816 
13  1  1  -0.158   0.00359356712912291   -0.553623741937035    8.86030990744336 
14  1  1  -0.1584   0.0160863485736432    0.264470165290315    7.57574354864002 
15  1  1  -0.1582  -0.00248056654295628   -0.648899247589257    6.35542732659793 
16  1  1  -0.1577   0.0119273681353752    0.175184979018535    5.07351199812473 
17  1  1  -0.1613  -0.00461239235585258   -0.725884856150585    3.84207907548088 
18  1  1  -0.1363   0.00823933648310579    0.111698210387666    2.56639755354281 
19  1  1  -0.232  -0.00973514308384813   -0.767849393883299    1.32377938354629 
20  1  2   0.4275   0    0    0 
21  1  3  -0.6316   0.0215253315111278    1.25921442123347    0.0731809583224492 
22  1  3  -0.6316  -0.0136453580527649   -0.742258602988857   -1.02443899744818 
23  1  4   0.0699   0.00688900344604291    0.661239953667651    24.7543885662301 
24  1  4   0.0699   0.881342147774123   -0.647203719507979    23.9382279780483 
25  1  4   0.0699  -0.894928888789952   -0.628322211673608    23.9379316243995 
26  1  4   0.0774   0.898802877393036    1.45690186427395    22.5884138740254 
27  1  4   0.0774  -0.868525843506015    1.47378440896176    22.5869035859115 
28  1  4   0.0783  -0.888745855253767   -0.728629575577389    21.3919566749857 
29  1  4   0.0783   0.877846078722533   -0.747035183883091    21.3960487884706 
30  1  4   0.0784   0.903110698009419    1.37375373618357    20.0652442529978 
31  1  4   0.0784  -0.863853035676767    1.39428837269776    20.0636951109762 
32  1  4   0.0783  -0.888751767695745   -0.814825506067691    18.8857940527418 
33  1  4   0.0783   0.877353969088243   -0.837127821336477    18.8885816022636 
34  1  4   0.0786   0.907588500258977    1.28141354861862    17.5563768188261 
35  1  4   0.0786  -0.859610218544243    1.30560601682596    17.5547883156648 
36  1  4   0.0784  -0.889570260989996   -0.905179433672284    16.3829034592809 
37  1  4   0.0784   0.877459670082535   -0.931341374164578    16.3844199234196 
38  1  4   0.0786   0.912023541392241    1.18732981993755    15.0547009516507 
39  1  4   0.0786  -0.855240931210524    1.21509420949829    15.0530194200906 
40  1  4   0.0782  -0.889593968577276   -0.995892328654171    13.8821620652296 
41  1  4   0.0782   0.877254954028488   -1.02626311390689    13.8845496560625 
42  1  4   0.0784   0.916321130427957    1.09253225990079    12.553754845886 
43  1  4   0.0784  -0.850888492834255    1.12393485007691    12.5520234361534 
44  1  4   0.0776  -0.888516616970999   -1.09036850084315    11.3849579884265 
45  1  4   0.0776   0.878092242453313   -1.12085632719296    11.3860827764045 
46  1  4   0.078   0.915004945713069    0.997341662184282    10.0525187993354 
47  1  4   0.078  -0.85156300437951    1.0280411553687    10.0527158372074 
48  1  4   0.0764  -0.890592984482419   -1.18823273977236    8.88912834222928 
49  1  4   0.0764   0.875924634748365   -1.2180830688879    8.88710021528561 
50  1  4   0.0771   0.91105938903773    0.89802331694565    7.55100221136692 
51  1  4   0.0771  -0.855615546946297    0.930276123898142    7.55337653432747 
52  1  4   0.0736  -0.898628411359287   -1.28076376269647    6.38123849626085 
53  1  4   0.0736   0.868356419490693   -1.31502300806304    6.37995828027066 
54  1  4   0.0757   0.907080086787507    0.809257238293104    5.05503538295468 
55  1  4   0.0757  -0.859850389983879    0.840786254694915    5.05575945558733 
56  1  4   0.0651  -0.898958956245413   -1.36016446718738    3.86280175826912 
57  1  4   0.0651   0.86782903095515   -1.38997523722089    3.86080076506729 
58  1  4   0.0796   0.901687110212974    0.748223680092882    2.55778009256543 
59  1  4   0.0796  -0.861867969655575    0.780446639738133    2.56015705313233 
60  1  4   0.059  -0.904947775545612   -1.40235628532432    1.33723245363191 
61  1  4   0.059   0.863882325855065   -1.43205305581616    1.33413201798129 

Bonds

1  1  2  1
2  1  3  2
3  1  4  3
4  1  5  4
5  1  6  5
6  1  7  6
7  1  8  7
8  1  9  8
9  1  10  9
10  1  11  10
11  1  12  11
12  1  13  12
13  1  14  13
14  1  15  14
15  1  16  15
16  1  17  16
17  1  18  17
18  1  19  18
19  2  20  19
20  3  21  20
21  3  22  20
22  4  23  1
23  4  24  1
24  4  25  1
25  4  26  2
26  4  27  2
27  4  28  3
28  4  29  3
29  4  30  4
30  4  31  4
31  4  32  5
32  4  33  5
33  4  34  6
34  4  35  6
35  4  36  7
36  4  37  7
37  4  38  8
38  4  39  8
39  4  40  9
40  4  41  9
41  4  42  10
42  4  43  10
43  4  44  11
44  4  45  11
45  4  46  12
46  4  47  12
47  4  48  13
48  4  49  13
49  4  50  14
50  4  51  14
51  4  52  15
52  4  53  15
53  4  54  16
54  4  55  16
55  4  56  17
56  4  57  17
57  4  58  18
58  4  59  18
59  4  60  19
60  4  61  19

Angles

1  1  1  2  3
2  1  2  3  4
3  1  3  4  5
4  1  4  5  6
5  1  5  6  7
6  1  6  7  8
7  1  7  8  9
8  1  8  9  10
9  1  9  10  11
10  1  10  11  12
11  1  11  12  13
12  1  12  13  14
13  1  13  14  15
14  1  14  15  16
15  1  15  16  17
16  1  16  17  18
17  1  17  18  19
18  2  18  19  20
19  3  19  20  21
20  3  19  20  22
21  4  2  1  23
22  4  2  1  24
23  4  2  1  25
24  4  1  2  26
25  4  1  2  27
26  4  2  3  28
27  4  2  3  29
28  4  3  4  30
29  4  3  4  31
30  4  4  5  32
31  4  4  5  33
32  4  5  6  34
33  4  5  6  35
34  4  6  7  36
35  4  6  7  37
36  4  7  8  38
37  4  7  8  39
38  4  8  9  40
39  4  8  9  41
40  4  9  10  42
41  4  9  10  43
42  4  10  11  44
43  4  10  11  45
44  4  11  12  46
45  4  11  12  47
46  4  12  13  48
47  4  12  13  49
48  4  13  14  50
49  4  13  14  51
50  4  14  15  52
51  4  14  15  53
52  4  15  16  54
53  4  15  16  55
54  4  16  17  56
55  4  16  17  57
56  4  17  18  58
57  4  17  18  59
58  4  18  19  60
59  4  18  19  61
60  4  18  17  56
61  5  54  16  55
62  5  30  4  31
63  4  3  2  26
64  4  15  14  50
65  5  34  6  35
66  4  15  14  51
67  5  46  12  47
68  4  14  13  49
69  4  12  11  44
70  5  50  14  51
71  4  11  10  43
72  4  6  5  32
73  5  44  11  45
74  5  48  13  49
75  4  8  7  36
76  4  14  13  48
77  4  6  5  33
78  6  21  20  22
79  5  28  3  29
80  5  23  1  24
81  5  36  7  37
82  4  3  2  27
83  4  9  8  39
84  4  10  9  41
85  4  4  3  29
86  4  4  3  28
87  7  20  19  61
88  4  17  16  55
89  5  40  9  41
90  5  23  1  25
91  5  58  18  59
92  4  7  6  35
93  5  52  15  53
94  5  60  19  61
95  4  13  12  46
96  5  42  10  43
97  4  7  6  34
98  5  26  2  27
99  5  32  5  33
100  4  19  18  59
101  5  24  1  25
102  5  56  17  57
103  4  10  9  40
104  4  5  4  30
105  5  38  8  39
106  4  13  12  47
107  4  16  15  53
108  7  20  19  60
109  4  8  7  37
110  4  11  10  42
111  4  12  11  45
112  4  9  8  38
113  4  5  4  31
114  4  18  17  57
115  4  17  16  54
116  4  19  18  58
117  4  16  15  52

Dihedrals

1  1  4  3  2  1
2  1  5  4  3  2
3  1  6  5  4  3
4  1  7  6  5  4
5  1  8  7  6  5
6  1  9  8  7  6
7  1  10  9  8  7
8  1  11  10  9  8
9  1  12  11  10  9
10  1  13  12  11  10
11  1  14  13  12  11
12  1  15  14  13  12
13  1  16  15  14  13
14  1  17  16  15  14
15  1  18  17  16  15
16  1  19  18  17  16
17  2  20  19  18  17
18  3  21  20  19  18
19  4  23  1  2  3
20  4  35  6  5  33
21  4  30  4  3  2
22  4  58  18  17  57
23  4  61  19  18  17
24  4  55  16  17  18
25  3  61  19  20  22
26  4  47  12  13  14
27  4  38  8  7  6
28  4  44  11  10  9
29  4  56  17  16  15
30  4  56  17  18  19
31  4  32  5  4  3
32  4  47  12  11  45
33  4  26  2  1  23
34  4  42  10  9  40
35  4  34  6  5  4
36  3  60  19  20  21
37  4  58  18  17  56
38  4  39  8  9  10
39  4  37  7  8  9
40  4  37  7  6  34
41  4  36  7  6  35
42  4  29  3  4  5
43  4  60  19  18  59
44  4  61  19  18  59
45  4  39  8  7  37
46  4  40  9  8  39
47  4  44  11  10  42
48  4  54  16  17  18
49  4  57  17  16  15
50  4  28  3  4  5
51  4  26  2  1  24
52  4  47  12  11  44
53  4  49  13  12  46
54  4  31  4  3  29
55  4  41  9  8  39
56  4  55  16  15  53
57  4  55  16  15  14
58  4  38  8  9  10
59  4  29  3  2  1
60  4  41  9  8  7
61  4  26  2  3  4
62  4  32  5  4  31
63  4  35  6  7  8
64  4  33  5  4  31
65  4  52  15  14  13
66  4  43  10  9  40
67  4  42  10  9  41
68  4  46  12  11  10
69  4  48  13  12  46
70  4  27  2  1  23
71  4  52  15  16  17
72  4  46  12  11  45
73  4  47  12  11  10
74  4  59  18  17  57
75  4  50  14  13  12
76  4  51  14  13  49
77  4  53  15  14  13
78  4  43  10  11  12
79  4  35  6  5  4
80  4  39  8  7  6
81  4  32  5  6  7
82  4  50  14  13  48
83  4  24  1  2  3
84  4  38  8  7  36
85  4  45  11  10  9
86  4  59  18  17  16
87  4  31  4  3  2
88  4  60  19  18  17
89  4  48  13  12  47
90  4  46  12  13  14
91  4  49  13  12  11
92  3  60  19  20  22
93  4  57  17  18  19
94  3  61  19  20  21
95  4  33  5  4  30
96  4  40  9  10  11
97  4  56  17  16  55
98  4  53  15  14  51
99  4  29  3  2  27
100  4  57  17  16  54
101  4  43  10  9  8
102  4  25  1  2  3
103  4  30  4  3  29
104  4  31  4  3  28
105  4  52  15  14  51
106  4  26  2  1  25
107  4  27  2  1  24
108  4  32  5  4  30
109  4  51  14  13  12
110  5  59  18  19  20
111  4  48  13  14  15
112  4  31  4  5  6
113  4  51  14  15  16
114  4  54  16  15  14
115  4  50  14  13  49
116  4  51  14  13  48
117  4  27  2  3  4
118  4  40  9  8  38
119  4  28  3  2  26
120  4  41  9  10  11
121  4  36  7  8  9
122  4  36  7  6  5
123  4  42  10  9  8
124  4  36  7  6  34
125  3  22  20  19  18
126  4  37  7  6  5
127  4  43  10  9  41
128  4  45  11  12  13
129  4  30  4  3  28
130  4  46  12  11  44
131  4  37  7  6  35
132  4  45  11  10  43
133  4  54  16  15  52
134  4  48  13  12  11
135  4  49  13  12  47
136  4  34  6  5  32
137  4  39  8  7  36
138  4  29  3  2  26
139  4  28  3  2  27
140  4  55  16  15  52
141  4  54  16  15  53
142  4  52  15  14  50
143  4  53  15  16  17
144  4  56  17  16  54
145  4  27  2  1  25
146  4  42  10  11  12
147  4  59  18  17  56
148  4  30  4  5  6
149  4  58  18  17  16
150  4  34  6  7  8
151  4  28  3  2  1
152  4  50  14  15  16
153  4  38  8  7  37
154  4  33  5  4  3
155  4  35  6  5  32
156  4  34  6  5  33
157  5  58  18  19  20
158  4  53  15  14  50
159  4  49  13  14  15
160  4  41  9  8  38
161  4  45  11  10  42
162  4  40  9  8  7
163  4  33  5  6  7
164  4  44  11  10  43
165  4  57  17  16  55
166  4  44  11  12  13
167  4  60  19  18  58
168  4  61  19  18  58

Impropers

1  1  20  19  21  22
2  2  1  2  23  24
3  2  1  25  23  2
4  2  2  1  26  3
5  2  2  1  27  3
6  2  3  4  2  28
7  2  3  2  4  29
8  2  4  3  5  30
9  2  4  3  5  31
10  2  5  4  6  32
11  2  5  33  4  6
12  2  6  34  5  7
13  2  6  35  5  7
14  2  7  36  6  8
15  2  7  37  6  8
16  2  8  9  38  7
17  2  8  9  7  39
18  2  9  10  8  40
19  2  9  41  10  8
20  2  10  9  42  11
21  2  10  9  43  11
22  2  11  12  10  44
23  2  11  10  12  45
24  2  12  11  13  46
25  2  12  11  13  47
26  2  13  12  14  48
27  2  13  49  12  14
28  2  14  50  13  15
29  2  14  51  13  15
30  2  15  52  14  16
31  2  15  53  14  16
32  2  16  17  54  15
33  2  16  17  15  55
34  2  17  18  16  56
35  2  17  57  18  16
36  2  18  17  58  19
37  2  18  17  59  19
38  2  19  20  18  60
39  2  19  18  20  61
