LAMMPS data file Created by LigParGen - (Written by Leela S. Dodda)

      62 atoms
      61 bonds
     120 angles
     171 dihedrals
      40 impropers
 
      62 atom types
      61 bond types
     120 angle types
     171 dihedral types
      40 improper types
 
  -19.490760    30.509240 xlo xhi
    0.086100    50.086100 ylo yhi
   -1.027080    48.972920 zlo zhi

Masses

       1     12.011  
       2     12.011  
       3     12.011  
       4     12.011  
       5     12.011  
       6     12.011  
       7     12.011  
       8     12.011  
       9     12.011  
      10     12.011  
      11     12.011  
      12     12.011  
      13     12.011  
      14     12.011  
      15     12.011  
      16     12.011  
      17     12.011  
      18     12.011  
      19     12.011  
      20     12.011  
      21      1.008  
      22      1.008  
      23      1.008  
      24      1.008  
      25      1.008  
      26      1.008  
      27      1.008  
      28      1.008  
      29      1.008  
      30      1.008  
      31      1.008  
      32      1.008  
      33      1.008  
      34      1.008  
      35      1.008  
      36      1.008  
      37      1.008  
      38      1.008  
      39      1.008  
      40      1.008  
      41      1.008  
      42      1.008  
      43      1.008  
      44      1.008  
      45      1.008  
      46      1.008  
      47      1.008  
      48      1.008  
      49      1.008  
      50      1.008  
      51      1.008  
      52      1.008  
      53      1.008  
      54      1.008  
      55      1.008  
      56      1.008  
      57      1.008  
      58      1.008  
      59      1.008  
      60      1.008  
      61      1.008  
      62      1.008  

Pair Coeffs 

       1      0.066  3.5000000 
       2      0.066  3.5000000 
       3      0.066  3.5000000 
       4      0.066  3.5000000 
       5      0.066  3.5000000 
       6      0.066  3.5000000 
       7      0.066  3.5000000 
       8      0.066  3.5000000 
       9      0.066  3.5000000 
      10      0.066  3.5000000 
      11      0.066  3.5000000 
      12      0.066  3.5000000 
      13      0.066  3.5000000 
      14      0.066  3.5000000 
      15      0.066  3.5000000 
      16      0.066  3.5000000 
      17      0.066  3.5000000 
      18      0.066  3.5000000 
      19      0.066  3.5000000 
      20      0.066  3.5000000 
      21      0.030  2.5000000 
      22      0.030  2.5000000 
      23      0.030  2.5000000 
      24      0.030  2.5000000 
      25      0.030  2.5000000 
      26      0.030  2.5000000 
      27      0.030  2.5000000 
      28      0.030  2.5000000 
      29      0.030  2.5000000 
      30      0.030  2.5000000 
      31      0.030  2.5000000 
      32      0.030  2.5000000 
      33      0.030  2.5000000 
      34      0.030  2.5000000 
      35      0.030  2.5000000 
      36      0.030  2.5000000 
      37      0.030  2.5000000 
      38      0.030  2.5000000 
      39      0.030  2.5000000 
      40      0.030  2.5000000 
      41      0.030  2.5000000 
      42      0.030  2.5000000 
      43      0.030  2.5000000 
      44      0.030  2.5000000 
      45      0.030  2.5000000 
      46      0.030  2.5000000 
      47      0.030  2.5000000 
      48      0.030  2.5000000 
      49      0.030  2.5000000 
      50      0.030  2.5000000 
      51      0.030  2.5000000 
      52      0.030  2.5000000 
      53      0.030  2.5000000 
      54      0.030  2.5000000 
      55      0.030  2.5000000 
      56      0.030  2.5000000 
      57      0.030  2.5000000 
      58      0.030  2.5000000 
      59      0.030  2.5000000 
      60      0.030  2.5000000 
      61      0.030  2.5000000 
      62      0.030  2.5000000 

Bond Coeffs 

       1   268.0000     1.5290 
       2   268.0000     1.5290 
       3   268.0000     1.5290 
       4   268.0000     1.5290 
       5   268.0000     1.5290 
       6   268.0000     1.5290 
       7   268.0000     1.5290 
       8   268.0000     1.5290 
       9   268.0000     1.5290 
      10   268.0000     1.5290 
      11   268.0000     1.5290 
      12   268.0000     1.5290 
      13   268.0000     1.5290 
      14   268.0000     1.5290 
      15   268.0000     1.5290 
      16   268.0000     1.5290 
      17   268.0000     1.5290 
      18   268.0000     1.5290 
      19   268.0000     1.5290 
      20   340.0000     1.0900 
      21   340.0000     1.0900 
      22   340.0000     1.0900 
      23   340.0000     1.0900 
      24   340.0000     1.0900 
      25   340.0000     1.0900 
      26   340.0000     1.0900 
      27   340.0000     1.0900 
      28   340.0000     1.0900 
      29   340.0000     1.0900 
      30   340.0000     1.0900 
      31   340.0000     1.0900 
      32   340.0000     1.0900 
      33   340.0000     1.0900 
      34   340.0000     1.0900 
      35   340.0000     1.0900 
      36   340.0000     1.0900 
      37   340.0000     1.0900 
      38   340.0000     1.0900 
      39   340.0000     1.0900 
      40   340.0000     1.0900 
      41   340.0000     1.0900 
      42   340.0000     1.0900 
      43   340.0000     1.0900 
      44   340.0000     1.0900 
      45   340.0000     1.0900 
      46   340.0000     1.0900 
      47   340.0000     1.0900 
      48   340.0000     1.0900 
      49   340.0000     1.0900 
      50   340.0000     1.0900 
      51   340.0000     1.0900 
      52   340.0000     1.0900 
      53   340.0000     1.0900 
      54   340.0000     1.0900 
      55   340.0000     1.0900 
      56   340.0000     1.0900 
      57   340.0000     1.0900 
      58   340.0000     1.0900 
      59   340.0000     1.0900 
      60   340.0000     1.0900 
      61   340.0000     1.0900 

Angle Coeffs 

       1     58.350    112.700
       2     58.350    112.700
       3     58.350    112.700
       4     58.350    112.700
       5     58.350    112.700
       6     58.350    112.700
       7     58.350    112.700
       8     58.350    112.700
       9     58.350    112.700
      10     58.350    112.700
      11     58.350    112.700
      12     58.350    112.700
      13     58.350    112.700
      14     58.350    112.700
      15     58.350    112.700
      16     58.350    112.700
      17     58.350    112.700
      18     58.350    112.700
      19     37.500    110.700
      20     37.500    110.700
      21     37.500    110.700
      22     37.500    110.700
      23     37.500    110.700
      24     37.500    110.700
      25     37.500    110.700
      26     37.500    110.700
      27     37.500    110.700
      28     37.500    110.700
      29     37.500    110.700
      30     37.500    110.700
      31     37.500    110.700
      32     37.500    110.700
      33     37.500    110.700
      34     37.500    110.700
      35     37.500    110.700
      36     37.500    110.700
      37     37.500    110.700
      38     37.500    110.700
      39     37.500    110.700
      40     37.500    110.700
      41     37.500    110.700
      42     37.500    110.700
      43     37.500    110.700
      44     37.500    110.700
      45     37.500    110.700
      46     37.500    110.700
      47     37.500    110.700
      48     37.500    110.700
      49     37.500    110.700
      50     37.500    110.700
      51     37.500    110.700
      52     37.500    110.700
      53     37.500    110.700
      54     37.500    110.700
      55     37.500    110.700
      56     37.500    110.700
      57     37.500    110.700
      58     37.500    110.700
      59     37.500    110.700
      60     37.500    110.700
      61     37.500    110.700
      62     37.500    110.700
      63     37.500    110.700
      64     33.000    107.800
      65     33.000    107.800
      66     37.500    110.700
      67     37.500    110.700
      68     33.000    107.800
      69     37.500    110.700
      70     33.000    107.800
      71     37.500    110.700
      72     33.000    107.800
      73     37.500    110.700
      74     37.500    110.700
      75     37.500    110.700
      76     33.000    107.800
      77     37.500    110.700
      78     33.000    107.800
      79     37.500    110.700
      80     37.500    110.700
      81     37.500    110.700
      82     33.000    107.800
      83     37.500    110.700
      84     37.500    110.700
      85     37.500    110.700
      86     33.000    107.800
      87     37.500    110.700
      88     37.500    110.700
      89     37.500    110.700
      90     33.000    107.800
      91     33.000    107.800
      92     33.000    107.800
      93     37.500    110.700
      94     37.500    110.700
      95     37.500    110.700
      96     37.500    110.700
      97     37.500    110.700
      98     37.500    110.700
      99     37.500    110.700
     100     33.000    107.800
     101     37.500    110.700
     102     33.000    107.800
     103     33.000    107.800
     104     33.000    107.800
     105     37.500    110.700
     106     33.000    107.800
     107     33.000    107.800
     108     37.500    110.700
     109     33.000    107.800
     110     33.000    107.800
     111     33.000    107.800
     112     37.500    110.700
     113     37.500    110.700
     114     37.500    110.700
     115     37.500    110.700
     116     33.000    107.800
     117     37.500    110.700
     118     37.500    110.700
     119     33.000    107.800
     120     33.000    107.800

Dihedral Coeffs  

       1      1.300     -0.200      0.200      0.000 
       2      1.300     -0.200      0.200      0.000 
       3      1.300     -0.200      0.200      0.000 
       4      1.300     -0.200      0.200      0.000 
       5      1.300     -0.200      0.200      0.000 
       6      1.300     -0.200      0.200      0.000 
       7      1.300     -0.200      0.200      0.000 
       8      1.300     -0.200      0.200      0.000 
       9      1.300     -0.200      0.200      0.000 
      10      1.300     -0.200      0.200      0.000 
      11      1.300     -0.200      0.200      0.000 
      12      1.300     -0.200      0.200      0.000 
      13      1.300     -0.200      0.200      0.000 
      14      1.300     -0.200      0.200      0.000 
      15      1.300     -0.200      0.200      0.000 
      16      1.300     -0.200      0.200      0.000 
      17      1.300     -0.200      0.200      0.000 
      18      0.000      0.000      0.300      0.000 
      19      0.000      0.000      0.300      0.000 
      20      0.000      0.000      0.300      0.000 
      21      0.000      0.000      0.300      0.000 
      22      0.000      0.000      0.300      0.000 
      23      0.000      0.000      0.300      0.000 
      24      0.000      0.000      0.300      0.000 
      25      0.000      0.000      0.300      0.000 
      26      0.000      0.000      0.300      0.000 
      27      0.000      0.000      0.300      0.000 
      28      0.000      0.000      0.300      0.000 
      29      0.000      0.000      0.300      0.000 
      30      0.000      0.000      0.300      0.000 
      31      0.000      0.000      0.300      0.000 
      32      0.000      0.000      0.300      0.000 
      33      0.000      0.000      0.300      0.000 
      34      0.000      0.000      0.300      0.000 
      35      0.000      0.000      0.300      0.000 
      36      0.000      0.000      0.300      0.000 
      37      0.000      0.000      0.300      0.000 
      38      0.000      0.000      0.300      0.000 
      39      0.000      0.000      0.300      0.000 
      40      0.000      0.000      0.300      0.000 
      41      0.000      0.000      0.300      0.000 
      42      0.000      0.000      0.300      0.000 
      43      0.000      0.000      0.300      0.000 
      44      0.000      0.000      0.300      0.000 
      45      0.000      0.000      0.300      0.000 
      46      0.000      0.000      0.300      0.000 
      47      0.000      0.000      0.300      0.000 
      48      0.000      0.000      0.300      0.000 
      49      0.000      0.000      0.300      0.000 
      50      0.000      0.000      0.300      0.000 
      51      0.000      0.000      0.300      0.000 
      52      0.000      0.000      0.300      0.000 
      53      0.000      0.000      0.300      0.000 
      54      0.000      0.000      0.300      0.000 
      55      0.000      0.000      0.300      0.000 
      56      0.000      0.000      0.300      0.000 
      57      0.000      0.000      0.300      0.000 
      58      0.000      0.000      0.300      0.000 
      59      0.000      0.000      0.300      0.000 
      60      0.000      0.000      0.300      0.000 
      61      0.000      0.000      0.300      0.000 
      62      0.000      0.000      0.300      0.000 
      63      0.000      0.000      0.300      0.000 
      64      0.000      0.000      0.300      0.000 
      65      0.000      0.000      0.300      0.000 
      66      0.000      0.000      0.300      0.000 
      67      0.000      0.000      0.300      0.000 
      68      0.000      0.000      0.300      0.000 
      69      0.000      0.000      0.300      0.000 
      70      0.000      0.000      0.300      0.000 
      71      0.000      0.000      0.300      0.000 
      72      0.000      0.000      0.300      0.000 
      73      0.000      0.000      0.300      0.000 
      74      0.000      0.000      0.300      0.000 
      75      0.000      0.000      0.300      0.000 
      76      0.000      0.000      0.300      0.000 
      77      0.000      0.000      0.300      0.000 
      78      0.000      0.000      0.300      0.000 
      79      0.000      0.000      0.300      0.000 
      80      0.000      0.000      0.300      0.000 
      81      0.000      0.000      0.300      0.000 
      82      0.000      0.000      0.300      0.000 
      83      0.000      0.000      0.300      0.000 
      84      0.000      0.000      0.300      0.000 
      85      0.000      0.000      0.300      0.000 
      86      0.000      0.000      0.300      0.000 
      87      0.000      0.000      0.300      0.000 
      88      0.000      0.000      0.300      0.000 
      89      0.000      0.000      0.300      0.000 
      90      0.000      0.000      0.300      0.000 
      91      0.000      0.000      0.300      0.000 
      92      0.000      0.000      0.300      0.000 
      93      0.000      0.000      0.300      0.000 
      94      0.000      0.000      0.300      0.000 
      95      0.000      0.000      0.300      0.000 
      96      0.000      0.000      0.300      0.000 
      97      0.000      0.000      0.300      0.000 
      98      0.000      0.000      0.300      0.000 
      99      0.000      0.000      0.300      0.000 
     100      0.000      0.000      0.300      0.000 
     101      0.000      0.000      0.300      0.000 
     102      0.000      0.000      0.300      0.000 
     103      0.000      0.000      0.300      0.000 
     104      0.000      0.000      0.300      0.000 
     105      0.000      0.000      0.300      0.000 
     106      0.000      0.000      0.300      0.000 
     107      0.000      0.000      0.300      0.000 
     108      0.000      0.000      0.300      0.000 
     109      0.000      0.000      0.300      0.000 
     110      0.000      0.000      0.300      0.000 
     111      0.000      0.000      0.300      0.000 
     112      0.000      0.000      0.300      0.000 
     113      0.000      0.000      0.300      0.000 
     114      0.000      0.000      0.300      0.000 
     115      0.000      0.000      0.300      0.000 
     116      0.000      0.000      0.300      0.000 
     117      0.000      0.000      0.300      0.000 
     118      0.000      0.000      0.300      0.000 
     119      0.000      0.000      0.300      0.000 
     120      0.000      0.000      0.300      0.000 
     121      0.000      0.000      0.300      0.000 
     122      0.000      0.000      0.300      0.000 
     123      0.000      0.000      0.300      0.000 
     124      0.000      0.000      0.300      0.000 
     125      0.000      0.000      0.300      0.000 
     126      0.000      0.000      0.300      0.000 
     127      0.000      0.000      0.300      0.000 
     128      0.000      0.000      0.300      0.000 
     129      0.000      0.000      0.300      0.000 
     130      0.000      0.000      0.300      0.000 
     131      0.000      0.000      0.300      0.000 
     132      0.000      0.000      0.300      0.000 
     133      0.000      0.000      0.300      0.000 
     134      0.000      0.000      0.300      0.000 
     135      0.000      0.000      0.300      0.000 
     136      0.000      0.000      0.300      0.000 
     137      0.000      0.000      0.300      0.000 
     138      0.000      0.000      0.300      0.000 
     139      0.000      0.000      0.300      0.000 
     140      0.000      0.000      0.300      0.000 
     141      0.000      0.000      0.300      0.000 
     142      0.000      0.000      0.300      0.000 
     143      0.000      0.000      0.300      0.000 
     144      0.000      0.000      0.300      0.000 
     145      0.000      0.000      0.300      0.000 
     146      0.000      0.000      0.300      0.000 
     147      0.000      0.000      0.300      0.000 
     148      0.000      0.000      0.300      0.000 
     149      0.000      0.000      0.300      0.000 
     150      0.000      0.000      0.300      0.000 
     151      0.000      0.000      0.300      0.000 
     152      0.000      0.000      0.300      0.000 
     153      0.000      0.000      0.300      0.000 
     154      0.000      0.000      0.300      0.000 
     155      0.000      0.000      0.300      0.000 
     156      0.000      0.000      0.300      0.000 
     157      0.000      0.000      0.300      0.000 
     158      0.000      0.000      0.300      0.000 
     159      0.000      0.000      0.300      0.000 
     160      0.000      0.000      0.300      0.000 
     161      0.000      0.000      0.300      0.000 
     162      0.000      0.000      0.300      0.000 
     163      0.000      0.000      0.300      0.000 
     164      0.000      0.000      0.300      0.000 
     165      0.000      0.000      0.300      0.000 
     166      0.000      0.000      0.300      0.000 
     167      0.000      0.000      0.300      0.000 
     168      0.000      0.000      0.300      0.000 
     169      0.000      0.000      0.300      0.000 
     170      0.000      0.000      0.300      0.000 
     171      0.000      0.000      0.300      0.000 

Improper Coeffs 

       1      0.000      -1       2 
       2      0.000      -1       2 
       3      0.000      -1       2 
       4      0.000      -1       2 
       5      0.000      -1       2 
       6      0.000      -1       2 
       7      0.000      -1       2 
       8      0.000      -1       2 
       9      0.000      -1       2 
      10      0.000      -1       2 
      11      0.000      -1       2 
      12      0.000      -1       2 
      13      0.000      -1       2 
      14      0.000      -1       2 
      15      0.000      -1       2 
      16      0.000      -1       2 
      17      0.000      -1       2 
      18      0.000      -1       2 
      19      0.000      -1       2 
      20      0.000      -1       2 
      21      0.000      -1       2 
      22      0.000      -1       2 
      23      0.000      -1       2 
      24      0.000      -1       2 
      25      0.000      -1       2 
      26      0.000      -1       2 
      27      0.000      -1       2 
      28      0.000      -1       2 
      29      0.000      -1       2 
      30      0.000      -1       2 
      31      0.000      -1       2 
      32      0.000      -1       2 
      33      0.000      -1       2 
      34      0.000      -1       2 
      35      0.000      -1       2 
      36      0.000      -1       2 
      37      0.000      -1       2 
      38      0.000      -1       2 
      39      0.000      -1       2 
      40      0.000      -1       2 

Atoms 

     1      1      1 -0.23880000    1.000  1.00000  0.00000
     2      1      2 -0.17960000   -0.519  1.00000  0.00000
     3      1      3 -0.17880000   -1.069  1.00000  1.42447
     4      1      4 -0.17960000   -2.595  0.99820  1.42447
     5      1      5 -0.17950000   -3.137  1.00001  2.85060
     6      1      6 -0.17960000   -4.662  0.99642  2.85224
     7      1      7 -0.17970000   -5.199  0.99644  4.27891
     8      1      8 -0.17970000   -6.723  0.99465  4.27892
     9      1      9 -0.17980000   -7.259  0.99647  5.70474
    10      1     10 -0.17970000   -8.782  0.99288  5.70475
    11      1     11 -0.18010000   -9.316  0.99291  7.13202
    12      1     12 -0.17970000  -10.840  0.98752  7.13528
    13      1     13 -0.17950000  -11.374  0.98935  8.56179
    14      1     14 -0.17980000  -12.897  0.98576  8.56505
    15      1     15 -0.17960000  -13.434  0.98578  9.99159
    16      1     16 -0.17960000  -14.959  0.98038  9.99322
    17      1     17 -0.17940000  -15.501  0.98219 11.41941
    18      1     18 -0.17880000  -17.027  0.97858 11.41778
    19      1     19 -0.17950000  -17.579  0.98216 12.84097
    20      1     20 -0.23870000  -19.098  0.97677 12.83935
    21      1     21 0.08070000    1.378  0.99870 -1.02708
    22      1     22 0.08070000    1.390  0.11274  0.50867
    23      1     23 0.08070000    1.390  1.88852  0.50641
    24      1     24 0.08840000   -0.881  0.11632 -0.53835
    25      1     25 0.08840000   -0.881  1.88280 -0.53924
    26      1     26 0.08950000   -0.703  1.88420  1.96108
    27      1     27 0.08950000   -0.700  0.11766  1.96233
    28      1     28 0.08940000   -2.964  0.11365  0.89076
    29      1     29 0.08940000   -2.966  1.88012  0.88767
    30      1     30 0.08960000   -2.770  1.88547  3.38367
    31      1     31 0.08960000   -2.766  0.11899  3.38843
    32      1     32 0.08980000   -5.030  0.11195  2.31826
    33      1     33 0.08980000   -5.035  1.87875  2.31772
    34      1     34 0.08990000   -4.830  1.88080  4.81287
    35      1     35 0.08990000   -4.827  0.11393  4.81413
    36      1     36 0.08990000   -7.092  0.10962  3.74633
    37      1     37 0.08990000   -7.094  1.87643  3.74220
    38      1     38 0.08990000   -6.892  1.88225  6.23724
    39      1     39 0.08990000   -6.887  0.11535  6.24145
    40      1     40 0.08990000   -9.150  0.10765  5.17132
    41      1     41 0.08990000   -9.156  1.87421  5.16903
    42      1     42 0.08980000   -8.947  1.87760  7.66526
    43      1     43 0.08980000   -8.942  0.11097  7.66697
    44      1     44 0.08990000  -11.207  0.10246  6.60225
    45      1     45 0.08990000  -11.211  1.86903  6.59791
    46      1     46 0.08980000  -11.003  1.87363  9.09406
    47      1     47 0.08980000  -11.001  0.10783  9.09720
    48      1     48 0.08980000  -13.265  0.10137  8.03010
    49      1     49 0.08980000  -13.268  1.86836  8.02935
    50      1     50 0.08980000  -13.066  1.87158 10.52324
    51      1     51 0.08980000  -13.060  0.10447 10.52653
    52      1     52 0.08970000  -15.323  0.09424  9.45913
    53      1     53 0.08970000  -15.330  1.86119  9.45447
    54      1     54 0.08950000  -15.133  1.86803 11.95156
    55      1     55 0.08950000  -15.128  0.10112 11.95571
    56      1     56 0.08950000  -17.391  0.09299 10.88255
    57      1     57 0.08950000  -17.396  1.85869 10.87653
    58      1     58 0.08840000  -17.220  1.86862 13.37664
    59      1     59 0.08840000  -17.214  0.10237 13.38355
    60      1     60 0.08080000  -19.491  1.86023 12.32571
    61      1     61 0.08080000  -19.477  0.98190 13.86550
    62      1     62 0.08080000  -19.484  0.08610 12.33369

Bonds 

     1      1      2      1
     2      2      3      2
     3      3      4      3
     4      4      5      4
     5      5      6      5
     6      6      7      6
     7      7      8      7
     8      8      9      8
     9      9     10      9
    10     10     11     10
    11     11     12     11
    12     12     13     12
    13     13     14     13
    14     14     15     14
    15     15     16     15
    16     16     17     16
    17     17     18     17
    18     18     19     18
    19     19     20     19
    20     20     21      1
    21     21     22      1
    22     22     23      1
    23     23     24      2
    24     24     25      2
    25     25     26      3
    26     26     27      3
    27     27     28      4
    28     28     29      4
    29     29     30      5
    30     30     31      5
    31     31     32      6
    32     32     33      6
    33     33     34      7
    34     34     35      7
    35     35     36      8
    36     36     37      8
    37     37     38      9
    38     38     39      9
    39     39     40     10
    40     40     41     10
    41     41     42     11
    42     42     43     11
    43     43     44     12
    44     44     45     12
    45     45     46     13
    46     46     47     13
    47     47     48     14
    48     48     49     14
    49     49     50     15
    50     50     51     15
    51     51     52     16
    52     52     53     16
    53     53     54     17
    54     54     55     17
    55     55     56     18
    56     56     57     18
    57     57     58     19
    58     58     59     19
    59     59     60     20
    60     60     61     20
    61     61     62     20

Angles 

     1      1      1      2      3
     2      2      2      3      4
     3      3      3      4      5
     4      4      4      5      6
     5      5      5      6      7
     6      6      6      7      8
     7      7      7      8      9
     8      8      8      9     10
     9      9      9     10     11
    10     10     10     11     12
    11     11     11     12     13
    12     12     12     13     14
    13     13     13     14     15
    14     14     14     15     16
    15     15     15     16     17
    16     16     16     17     18
    17     17     17     18     19
    18     18     18     19     20
    19     19      2      1     21
    20     20      2      1     22
    21     21      2      1     23
    22     22      1      2     24
    23     23      1      2     25
    24     24      2      3     26
    25     25      2      3     27
    26     26      3      4     28
    27     27      3      4     29
    28     28      4      5     30
    29     29      4      5     31
    30     30      5      6     32
    31     31      5      6     33
    32     32      6      7     34
    33     33      6      7     35
    34     34      7      8     36
    35     35      7      8     37
    36     36      8      9     38
    37     37      8      9     39
    38     38      9     10     40
    39     39      9     10     41
    40     40     10     11     42
    41     41     10     11     43
    42     42     11     12     44
    43     43     11     12     45
    44     44     12     13     46
    45     45     12     13     47
    46     46     13     14     48
    47     47     13     14     49
    48     48     14     15     50
    49     49     14     15     51
    50     50     15     16     52
    51     51     15     16     53
    52     52     16     17     54
    53     53     16     17     55
    54     54     17     18     56
    55     55     17     18     57
    56     56     18     19     58
    57     57     18     19     59
    58     58     19     20     60
    59     59     19     20     61
    60     60     19     20     62
    61     61     18     17     55
    62     62     16     15     50
    63     63     12     11     42
    64     64     50     15     51
    65     65     44     12     45
    66     66     10      9     39
    67     67     18     17     54
    68     68     61     20     62
    69     69     19     18     57
    70     70     32      6     33
    71     71      7      6     32
    72     72     56     18     57
    73     73      6      5     30
    74     74      3      2     25
    75     75      5      4     28
    76     76     58     19     59
    77     77      9      8     37
    78     78     40     10     41
    79     79      9      8     36
    80     80     11     10     41
    81     81     17     16     53
    82     82     52     16     53
    83     83     15     14     49
    84     84     11     10     40
    85     85     14     13     47
    86     86     36      8     37
    87     87     17     16     52
    88     88      8      7     35
    89     89      4      3     27
    90     90     21      1     23
    91     91     54     17     55
    92     92     24      2     25
    93     93     13     12     45
    94     94     20     19     58
    95     95      6      5     31
    96     96     14     13     46
    97     97      4      3     26
    98     98     20     19     59
    99     99      8      7     34
   100    100     34      7     35
   101    101      5      4     29
   102    102     60     20     61
   103    103     28      4     29
   104    104     26      3     27
   105    105     10      9     38
   106    106     42     11     43
   107    107     22      1     23
   108    108     16     15     51
   109    109     60     20     62
   110    110     46     13     47
   111    111     48     14     49
   112    112     15     14     48
   113    113     13     12     44
   114    114     12     11     43
   115    115     19     18     56
   116    116     21      1     22
   117    117      3      2     24
   118    118      7      6     33
   119    119     30      5     31
   120    120     38      9     39

Dihedrals

     1      1      4      3      2      1 
     2      2      5      4      3      2 
     3      3      6      5      4      3 
     4      4      7      6      5      4 
     5      5      8      7      6      5 
     6      6      9      8      7      6 
     7      7     10      9      8      7 
     8      8     11     10      9      8 
     9      9     12     11     10      9 
    10     10     13     12     11     10 
    11     11     14     13     12     11 
    12     12     15     14     13     12 
    13     13     16     15     14     13 
    14     14     17     16     15     14 
    15     15     18     17     16     15 
    16     16     19     18     17     16 
    17     17     20     19     18     17 
    18     18     21      1      2      3 
    19     19     60     20     19     18 
    20     20     27      3      4      5 
    21     21     61     20     19     59 
    22     22     45     12     11     10 
    23     23     40     10      9     39 
    24     24     28      4      3      2 
    25     25     42     11     12     13 
    26     26     35      7      8      9 
    27     27     54     17     16     53 
    28     28     51     15     14     48 
    29     29     50     15     14     49 
    30     30     54     17     16     15 
    31     31     41     10     11     12 
    32     32     62     20     19     59 
    33     33     28      4      3     26 
    34     34     29      4      3     26 
    35     35     28      4      3     27 
    36     36     38      9      8      7 
    37     37     23      1      2      3 
    38     38     31      5      6      7 
    39     39     60     20     19     59 
    40     40     61     20     19     58 
    41     41     38      9     10     11 
    42     42     48     14     13     12 
    43     43     41     10      9      8 
    44     44     53     16     17     18 
    45     45     26      3      2      1 
    46     46     35      7      6      5 
    47     47     32      6      7      8 
    48     48     62     20     19     58 
    49     49     55     17     16     52 
    50     50     46     13     12     44 
    51     51     32      6      5     30 
    52     52     40     10      9     38 
    53     53     58     19     18     56 
    54     54     59     19     18     57 
    55     55     31      5      4     29 
    56     56     60     20     19     58 
    57     57     40     10      9      8 
    58     58     33      6      5     31 
    59     59     30      5      4     29 
    60     60     31      5      4     28 
    61     61     33      6      7      8 
    62     62     51     15     14     49 
    63     63     49     14     15     16 
    64     64     44     12     11     43 
    65     65     36      8      9     10 
    66     66     30      5      4      3 
    67     67     26      3      2     25 
    68     68     27      3      2     24 
    69     69     37      8      7      6 
    70     70     34      7      8      9 
    71     71     37      8      7     35 
    72     72     59     19     18     56 
    73     73     58     19     18     57 
    74     74     24      2      1     22 
    75     75     51     15     16     17 
    76     76     43     11     10     41 
    77     77     25      2      1     21 
    78     78     42     11     10     40 
    79     79     47     13     14     15 
    80     80     57     18     17     55 
    81     81     29      4      3      2 
    82     82     55     17     16     53 
    83     83     43     11     10      9 
    84     84     26      3      4      5 
    85     85     45     12     11     43 
    86     86     39      9      8      7 
    87     87     53     16     15     51 
    88     88     36      8      7     35 
    89     89     37      8      7     34 
    90     90     52     16     15     14 
    91     91     47     13     12     45 
    92     92     55     17     16     15 
    93     93     50     15     14     48 
    94     94     44     12     11     42 
    95     95     49     14     13     47 
    96     96     43     11     12     13 
    97     97     49     14     13     12 
    98     98     48     14     13     46 
    99     99     51     15     14     13 
   100    100     54     17     16     52 
   101    101     41     10      9     39 
   102    102     57     18     19     20 
   103    103     33      6      5     30 
   104    104     27      3      2      1 
   105    105     29      4      5      6 
   106    106     24      2      3      4 
   107    107     31      5      4      3 
   108    108     46     13     12     45 
   109    109     47     13     12     44 
   110    110     28      4      5      6 
   111    111     33      6      5      4 
   112    112     30      5      6      7 
   113    113     43     11     10     40 
   114    114     42     11     10     41 
   115    115     24      2      1     21 
   116    116     49     14     13     46 
   117    117     48     14     13     47 
   118    118     34      7      6      5 
   119    119     34      7      6     32 
   120    120     32      6      5      4 
   121    121     54     17     18     19 
   122    122     50     15     16     17 
   123    123     56     18     17     54 
   124    124     46     13     14     15 
   125    125     25      2      1     23 
   126    126     45     12     11     42 
   127    127     26      3      2     24 
   128    128     22      1      2      3 
   129    129     39      9     10     11 
   130    130     36      8      7      6 
   131    131     53     16     15     14 
   132    132     40     10     11     12 
   133    133     24      2      1     23 
   134    134     25      2      1     22 
   135    135     38      9      8     37 
   136    136     45     12     13     14 
   137    137     47     13     12     11 
   138    138     52     16     17     18 
   139    139     44     12     13     14 
   140    140     35      7      6     32 
   141    141     34      7      6     33 
   142    142     46     13     12     11 
   143    143     30      5      4     28 
   144    144     57     18     17     16 
   145    145     39      9      8     36 
   146    146     29      4      3     27 
   147    147     36      8      7     34 
   148    148     41     10      9     38 
   149    149     39      9      8     37 
   150    150     48     14     15     16 
   151    151     58     19     18     17 
   152    152     55     17     18     19 
   153    153     42     11     10      9 
   154    154     25      2      3      4 
   155    155     52     16     15     51 
   156    156     53     16     15     50 
   157    157     32      6      5     31 
   158    158     62     20     19     18 
   159    159     61     20     19     18 
   160    160     50     15     14     13 
   161    161     52     16     15     50 
   162    162     27      3      2     25 
   163    163     38      9      8     36 
   164    164     37      8      9     10 
   165    165     35      7      6     33 
   166    166     56     18     17     55 
   167    167     57     18     17     54 
   168    168     44     12     11     10 
   169    169     59     19     18     17 
   170    170     56     18     17     16 
   171    171     56     18     19     20 

Impropers

     1      1      1      2     21     22 
     2      2      1      2     21     23 
     3      3      2      1      3     24 
     4      4      2     25      3      1 
     5      5      3     26      4      2 
     6      6      3      2     27      4 
     7      7      4      3     28      5 
     8      8      4      5      3     29 
     9      9      5      4     30      6 
    10     10      5      4      6     31 
    11     11      6      5      7     32 
    12     12      6     33      5      7 
    13     13      7     34      6      8 
    14     14      7     35      6      8 
    15     15      8      9     36      7 
    16     16      8      9     37      7 
    17     17      9     10     38      8 
    18     18      9     10     39      8 
    19     19     10      9     11     40 
    20     20     10     41     11      9 
    21     21     11     42     12     10 
    22     22     11     10     43     12 
    23     23     12     11     44     13 
    24     24     12     13     11     45 
    25     25     13     12     46     14 
    26     26     13     12     14     47 
    27     27     14     13     15     48 
    28     28     14     49     13     15 
    29     29     15     50     14     16 
    30     30     15     51     14     16 
    31     31     16     17     52     15 
    32     32     16     17     53     15 
    33     33     17     18     54     16 
    34     34     17     18     55     16 
    35     35     18     17     19     56 
    36     36     18     57     19     17 
    37     37     19     58     20     18 
    38     38     19     18     59     20 
    39     39     20     60     19     61 
    40     40     20     60     19     62 

