#C4

14 atoms
2 atom types

13 bonds
2 bond types

24 angles
3 angle types

27 dihedrals
2 dihedral types

8 impropers
1 improper types

-0.890832025963523  0.885824501552224  xlo xhi
-1.97337442198459  0.41583548410848  ylo yhi
0.0397811016331029  5.36740330382501  zlo zhi

Masses

1  12.011
2  1.008

Pair Coeffs

1  0.066  3.5
2  0.03  2.5

Bond Coeffs

1  268.0  1.529
2  340.0  1.09

Angle Coeffs

1  58.35  112.7
2  37.5  110.7
3  33.0  107.8

Dihedral Coeffs

1  1.3  -0.2  0.2  0.0
2  0.0  0.0  0.3  0.0

Improper Coeffs

1  0.0  -1.0  2.0

Atoms # full

1  1  1  -0.2392  -0.00153459937488276   -0.779175798287065    0.768772380401685 
2  1  1  -0.1788  -0.000548137955047087   -0.220701831514032    2.18245758416194 
3  1  1  -0.1787  -0.000731710291304891   -1.33801824795146    3.22381552467069 
4  1  1  -0.2391  -0.00153459937488276   -0.779175798287066    4.63843161249177 
5  1  2   0.0805  -8.56380896647772e-05    0.0373398895539837    0.0397811016331029 
6  1  2   0.0805  -0.890832025963523   -1.39221747572147    0.591169244755864 
7  1  2   0.0805   0.885576609332637   -1.39535851751624    0.591170540296298 
8  1  2   0.0882  -0.882806862350313    0.41583548410848    2.31760846077221 
9  1  2   0.0882   0.88331225948392    0.413872439895482    2.31715157030874 
10  1  2   0.0882   0.882638334461114   -1.97256120925144    3.08895121027003 
11  1  2   0.0882  -0.88364342516686   -1.97337442198459    3.08727935783756 
12  1  2   0.0805   0.885824501552224   -0.163282298884973    4.81598469721879 
13  1  2   0.0805  -0.000353542216685075   -1.59564654928721    5.36740330382501 
14  1  2   0.0805  -0.889366629584491   -0.163778592677338    4.81526906740906 

Bonds

1  1  2  1
2  1  3  2
3  1  4  3
4  2  5  1
5  2  6  1
6  2  7  1
7  2  8  2
8  2  9  2
9  2  10  3
10  2  11  3
11  2  12  4
12  2  13  4
13  2  14  4

Angles

1  1  1  2  3
2  1  2  3  4
3  2  2  1  5
4  2  2  1  6
5  2  2  1  7
6  2  1  2  8
7  2  1  2  9
8  2  2  3  10
9  2  2  3  11
10  2  3  4  12
11  2  3  4  13
12  2  3  4  14
13  2  4  3  11
14  3  13  4  14
15  3  5  1  7
16  2  4  3  10
17  2  3  2  8
18  3  8  2  9
19  3  5  1  6
20  3  12  4  13
21  3  10  3  11
22  2  3  2  9
23  3  6  1  7
24  3  12  4  14

Dihedrals

1  1  4  3  2  1
2  2  5  1  2  3
3  2  12  4  3  2
4  2  10  3  2  9
5  2  11  3  2  8
6  2  11  3  2  9
7  2  11  3  2  1
8  2  12  4  3  10
9  2  9  2  1  5
10  2  8  2  1  6
11  2  7  1  2  3
12  2  13  4  3  10
13  2  8  2  3  4
14  2  14  4  3  2
15  2  9  2  3  4
16  2  14  4  3  11
17  2  10  3  2  8
18  2  13  4  3  11
19  2  14  4  3  10
20  2  9  2  1  7
21  2  6  1  2  3
22  2  8  2  1  5
23  2  9  2  1  6
24  2  8  2  1  7
25  2  10  3  2  1
26  2  12  4  3  11
27  2  13  4  3  2

Impropers

1  1  1  2  5  6
2  1  1  2  5  7
3  1  2  1  3  8
4  1  2  9  3  1
5  1  3  10  4  2
6  1  3  2  11  4
7  1  4  12  3  13
8  1  4  12  3  14
