#C4: Butanoate

13 atoms
4 atom types

12 bonds
4 bond types

21 angles
7 angle types

24 dihedrals
4 dihedral types

7 impropers
2 improper types

-0.88661323769463  0.889680223241748  xlo xhi
-1.25079476758718  1.14227400408546  ylo yhi
-0.864786255667127  4.65994060594648  zlo zhi

Masses

1  12.011
2  12.011
3  15.999
4  1.008

Pair Coeffs

1  0.066  3.5
2  0.07  3.55
3  0.21  2.96
4  0.03  2.5

Bond Coeffs

1  268.0  1.529
2  317.0  1.522
3  656.0  1.25
4  340.0  1.09

Angle Coeffs

1  58.35  112.7
2  63.0  111.1
3  70.0  117.0
4  37.5  110.7
5  80.0  126.0
6  33.0  107.8
7  35.0  109.5

Dihedral Coeffs

1  -2.06  -0.313  0.315  0.0
2  0.0  0.0  0.0  0.0
3  0.0  0.0  0.3  0.0
4  0.0  0.0  -0.1  0.0

Improper Coeffs

1  10.5  -1.0  2.0
2  0.0  -1.0  2.0

Atoms # full

1  1  1  -0.2086   8.46626243947759e-18    4.67751514708748e-15    3.91390919457772 
2  1  1  -0.1372  -0.00121828710238499   -0.588179767113607    2.5123232795034 
3  1  1  -0.2323   0.00267894625762961    0.502453836890572    1.44732016331594 
4  1  2   0.4278   0    0    0 
5  1  3  -0.6323  -0.00510973573855057   -1.25079476758718   -0.164828711022152 
6  1  3  -0.6323   0.00185390646984274    0.923646149150221   -0.864786255667127 
7  1  4   0.0482  -0.00154574266022145   -0.800886500280001    4.65994060594648 
8  1  4   0.0482  -0.88661323769463    0.620159013259278    4.07954667921791 
9  1  4   0.0482   0.889484678449647    0.616496908553693    4.07845518616388 
10  1  4   0.0768  -0.884789816593024   -1.22614428327787    2.39148463961998 
11  1  4   0.0768   0.878421363545913   -1.23166581219776    2.39226914675781 
12  1  4   0.0583   0.889680223241748    1.13519581001466    1.57685439267476 
13  1  4   0.0583  -0.879076781757755    1.14227400408546    1.57759041841189 

Bonds

1  1  2  1
2  1  3  2
3  2  4  3
4  3  5  4
5  3  6  4
6  4  7  1
7  4  8  1
8  4  9  1
9  4  10  2
10  4  11  2
11  4  12  3
12  4  13  3

Angles

1  1  1  2  3
2  2  2  3  4
3  3  3  4  5
4  3  3  4  6
5  4  2  1  7
6  4  2  1  8
7  4  2  1  9
8  4  1  2  10
9  4  1  2  11
10  4  2  3  12
11  4  2  3  13
12  4  3  2  11
13  5  5  4  6
14  6  10  2  11
15  7  4  3  13
16  4  3  2  10
17  6  7  1  8
18  6  7  1  9
19  6  8  1  9
20  6  12  3  13
21  7  4  3  12

Dihedrals

1  1  4  3  2  1
2  2  5  4  3  2
3  3  7  1  2  3
4  2  13  3  4  6
5  3  11  2  1  7
6  3  9  1  2  3
7  2  6  4  3  2
8  3  12  3  2  1
9  2  12  3  4  6
10  2  13  3  4  5
11  2  12  3  4  5
12  3  13  3  2  11
13  3  10  2  1  7
14  3  8  1  2  3
15  3  12  3  2  10
16  3  10  2  1  9
17  3  11  2  1  8
18  3  12  3  2  11
19  3  13  3  2  10
20  3  10  2  1  8
21  4  11  2  3  4
22  3  13  3  2  1
23  4  10  2  3  4
24  3  11  2  1  9

Impropers

1  1  4  3  5  6
2  2  1  2  7  8
3  2  1  9  7  2
4  2  2  1  10  3
5  2  2  1  11  3
6  2  3  4  2  12
7  2  3  2  4  13
