#C12

38 atoms
2 atom types

37 bonds
2 bond types

72 angles
3 angle types

99 dihedrals
2 dihedral types

24 impropers
1 improper types

-0.895659189603692  0.886659546315545  xlo xhi
-2.08465481171677  0.785465679447441  ylo yhi
0.0278291820223484  15.6155288805744  zlo zhi

Masses

1  12.011
2  1.008

Pair Coeffs

1  0.066  3.5
2  0.03  2.5

Bond Coeffs

1  268.0  1.529
2  340.0  1.09

Angle Coeffs

1  58.35  112.7
2  37.5  110.7
3  33.0  107.8

Dihedral Coeffs

1  1.3  -0.2  0.2  0.0
2  0.0  0.0  0.3  0.0

Improper Coeffs

1  0.0  -1.0  2.0

Atoms # full

1  1  1  -0.2388  -0.00373926374184586   -0.649244571187874    0.881198377375799 
2  1  1  -0.1794   2.79929222327989e-05    0.132920984614874    2.18450296613969 
3  1  1  -0.1785  -0.00338535785447666   -0.801626727799798    3.39265024302979 
4  1  1  -0.179  -0.00140377690130242   -0.0167432078890059    4.70365896272214 
5  1  1  -0.179  -0.00303499740427188   -0.95989106651186    5.90646598710086 
6  1  1  -0.179  -0.00286547721254902   -0.180624844042638    7.22085111098254 
7  1  1  -0.1789  -0.00269805265199372   -1.12631860137372    8.42168203422446 
8  1  1  -0.1791  -0.0043329975527855   -0.345638661260324    9.73522394511261 
9  1  1  -0.1791  -0.00236767714833334   -1.28736072564847    10.9394974292765 
10  1  1  -0.1785  -0.00581815208385822   -0.500559524261796    12.2505372388243 
11  1  1  -0.1792  -0.00208753872344638   -1.4342279449354    13.459302433542 
12  1  1  -0.2388  -0.00373926374184589   -0.649244571187889    14.7609316001038 
13  1  2   0.0807   7.70181378936842e-05    0.036167369191353    0.0278291820223484 
14  1  2   0.0807  -0.895659189603692   -1.27964572181535    0.807261829321723 
15  1  2   0.0807   0.88050272268945   -1.29012318647505    0.807249440942403 
16  1  2   0.0883  -0.880132397336612    0.785465679447441    2.215284570472 
17  1  2   0.0883   0.886659546315545    0.777445323036906    2.214990922926 
18  1  2   0.0893   0.877511373520851   -1.45428683692076    3.35377191211804 
19  1  2   0.0893  -0.888270718525137   -1.44862033315864    3.35314275012625 
20  1  2   0.0893  -0.883857943927841    0.633908512654388    4.7449133764426 
21  1  2   0.0893   0.883045109314967    0.631032614400292    4.74386454353159 
22  1  2   0.0894   0.879673946170686   -1.60932627566997    5.86448075947806 
23  1  2   0.0894  -0.887203694067347   -1.60738535006986    5.8637581014025 
24  1  2   0.0894  -0.885984260808097    0.468735026502717    7.26404900313066 
25  1  2   0.0894   0.880300754686517    0.468674370723433    7.26364494859229 
26  1  2   0.0894   0.881047903545862   -1.77408598221412    8.37985914428235 
27  1  2   0.0894  -0.885167273918855   -1.77626392599576    8.37810767228286 
28  1  2   0.0894  -0.88910236558541    0.301378300518734    9.77633388383 
29  1  2   0.0894   0.877807832022795    0.304950861156583    9.77608011498996 
30  1  2   0.0893   0.882734301072552   -1.93383018070101    10.8992242144366 
31  1  2   0.0893  -0.88340338424301   -1.93907822510048    10.8981487432974 
32  1  2   0.0894  -0.891403556775422    0.145388522777777    12.2876259705773 
33  1  2   0.0894   0.874629761425622    0.152188850300692    12.2866038896646 
34  1  2   0.0884   0.88299094082157   -2.0799760399737    13.4279264984853 
35  1  2   0.0884  -0.883863139277242   -2.08465481171677    13.4300102530674 
36  1  2   0.0807   0.882087260915871   -0.00985739060534541    14.8329916814217 
37  1  2   0.0807   0.000272506380717483   -1.33285389990777    15.6155288805744 
38  1  2   0.0807  -0.892567715128787   -0.0146324459291459    14.8339895023436 

Bonds

1  1  2  1
2  1  3  2
3  1  4  3
4  1  5  4
5  1  6  5
6  1  7  6
7  1  8  7
8  1  9  8
9  1  10  9
10  1  11  10
11  1  12  11
12  2  13  1
13  2  14  1
14  2  15  1
15  2  16  2
16  2  17  2
17  2  18  3
18  2  19  3
19  2  20  4
20  2  21  4
21  2  22  5
22  2  23  5
23  2  24  6
24  2  25  6
25  2  26  7
26  2  27  7
27  2  28  8
28  2  29  8
29  2  30  9
30  2  31  9
31  2  32  10
32  2  33  10
33  2  34  11
34  2  35  11
35  2  36  12
36  2  37  12
37  2  38  12

Angles

1  1  1  2  3
2  1  2  3  4
3  1  3  4  5
4  1  4  5  6
5  1  5  6  7
6  1  6  7  8
7  1  7  8  9
8  1  8  9  10
9  1  9  10  11
10  1  10  11  12
11  2  2  1  13
12  2  2  1  14
13  2  2  1  15
14  2  1  2  16
15  2  1  2  17
16  2  2  3  18
17  2  2  3  19
18  2  3  4  20
19  2  3  4  21
20  2  4  5  22
21  2  4  5  23
22  2  5  6  24
23  2  5  6  25
24  2  6  7  26
25  2  6  7  27
26  2  7  8  28
27  2  7  8  29
28  2  8  9  30
29  2  8  9  31
30  2  9  10  32
31  2  9  10  33
32  2  10  11  34
33  2  10  11  35
34  2  11  12  36
35  2  11  12  37
36  2  11  12  38
37  2  10  9  30
38  2  8  7  27
39  2  7  6  24
40  2  9  8  28
41  3  22  5  23
42  3  37  12  38
43  2  6  5  22
44  2  9  8  29
45  2  3  2  17
46  2  12  11  35
47  2  7  6  25
48  2  4  3  19
49  3  28  8  29
50  2  11  10  32
51  2  8  7  26
52  3  36  12  37
53  2  3  2  16
54  2  4  3  18
55  3  30  9  31
56  3  16  2  17
57  3  13  1  14
58  3  14  1  15
59  2  10  9  31
60  2  12  11  34
61  3  26  7  27
62  3  34  11  35
63  3  13  1  15
64  3  24  6  25
65  2  5  4  20
66  2  6  5  23
67  2  5  4  21
68  3  18  3  19
69  2  11  10  33
70  3  36  12  38
71  3  20  4  21
72  3  32  10  33

Dihedrals

1  1  4  3  2  1
2  1  5  4  3  2
3  1  6  5  4  3
4  1  7  6  5  4
5  1  8  7  6  5
6  1  9  8  7  6
7  1  10  9  8  7
8  1  11  10  9  8
9  1  12  11  10  9
10  2  13  1  2  3
11  2  36  12  11  10
12  2  35  11  10  33
13  2  28  8  9  10
14  2  35  11  10  32
15  2  19  3  2  16
16  2  24  6  5  22
17  2  33  10  9  30
18  2  32  10  9  31
19  2  26  7  6  25
20  2  27  7  6  24
21  2  20  4  3  18
22  2  18  3  2  17
23  2  25  6  7  8
24  2  23  5  6  7
25  2  32  10  9  30
26  2  29  8  7  27
27  2  17  2  3  4
28  2  16  2  3  4
29  2  23  5  4  20
30  2  27  7  8  9
31  2  32  10  11  12
32  2  35  11  10  9
33  2  19  3  2  1
34  2  37  12  11  10
35  2  25  6  5  23
36  2  28  8  7  26
37  2  32  10  9  8
38  2  21  4  3  19
39  2  17  2  1  15
40  2  26  7  6  24
41  2  22  5  4  3
42  2  23  5  4  21
43  2  31  9  8  28
44  2  30  9  8  29
45  2  17  2  1  13
46  2  16  2  1  14
47  2  28  8  7  27
48  2  29  8  7  26
49  2  18  3  2  16
50  2  18  3  2  1
51  2  23  5  4  3
52  2  37  12  11  35
53  2  20  4  5  6
54  2  38  12  11  34
55  2  21  4  3  2
56  2  31  9  10  11
57  2  18  3  4  5
58  2  30  9  8  28
59  2  29  8  9  10
60  2  30  9  8  7
61  2  34  11  10  32
62  2  24  6  5  4
63  2  22  5  4  21
64  2  30  9  10  11
65  2  22  5  6  7
66  2  34  11  10  9
67  2  20  4  3  2
68  2  24  6  5  23
69  2  25  6  5  22
70  2  37  12  11  34
71  2  36  12  11  35
72  2  27  7  6  25
73  2  31  9  8  29
74  2  15  1  2  3
75  2  27  7  6  5
76  2  38  12  11  35
77  2  24  6  7  8
78  2  25  6  5  4
79  2  33  10  11  12
80  2  22  5  4  20
81  2  33  10  9  8
82  2  34  11  10  33
83  2  29  8  7  6
84  2  26  7  8  9
85  2  36  12  11  34
86  2  16  2  1  13
87  2  19  3  2  17
88  2  20  4  3  19
89  2  21  4  3  18
90  2  21  4  5  6
91  2  31  9  8  7
92  2  19  3  4  5
93  2  38  12  11  10
94  2  26  7  6  5
95  2  14  1  2  3
96  2  33  10  9  31
97  2  28  8  7  6
98  2  16  2  1  15
99  2  17  2  1  14

Impropers

1  1  1  2  13  14
2  1  1  2  13  15
3  1  2  1  3  16
4  1  2  17  3  1
5  1  3  18  4  2
6  1  3  2  19  4
7  1  4  3  20  5
8  1  4  5  3  21
9  1  5  4  22  6
10  1  5  4  6  23
11  1  6  5  7  24
12  1  6  25  5  7
13  1  7  26  6  8
14  1  7  27  6  8
15  1  8  9  28  7
16  1  8  9  29  7
17  1  9  10  30  8
18  1  9  10  31  8
19  1  10  9  11  32
20  1  10  33  11  9
21  1  11  34  12  10
22  1  11  10  35  12
23  1  12  36  11  37
24  1  12  36  11  38
