LAMMPS data file Created by LigParGen - (Written by Leela S. Dodda)

      38 atoms
      37 bonds
      72 angles
      99 dihedrals
      24 impropers
 
      38 atom types
      37 bond types
      72 angle types
      99 dihedral types
      24 improper types
 
  -11.294240    38.705760 xlo xhi
    0.103050    50.103050 ylo yhi
   -1.026840    48.973160 zlo zhi

Masses

       1     12.011  
       2     12.011  
       3     12.011  
       4     12.011  
       5     12.011  
       6     12.011  
       7     12.011  
       8     12.011  
       9     12.011  
      10     12.011  
      11     12.011  
      12     12.011  
      13      1.008  
      14      1.008  
      15      1.008  
      16      1.008  
      17      1.008  
      18      1.008  
      19      1.008  
      20      1.008  
      21      1.008  
      22      1.008  
      23      1.008  
      24      1.008  
      25      1.008  
      26      1.008  
      27      1.008  
      28      1.008  
      29      1.008  
      30      1.008  
      31      1.008  
      32      1.008  
      33      1.008  
      34      1.008  
      35      1.008  
      36      1.008  
      37      1.008  
      38      1.008  

Pair Coeffs 

       1      0.066  3.5000000 
       2      0.066  3.5000000 
       3      0.066  3.5000000 
       4      0.066  3.5000000 
       5      0.066  3.5000000 
       6      0.066  3.5000000 
       7      0.066  3.5000000 
       8      0.066  3.5000000 
       9      0.066  3.5000000 
      10      0.066  3.5000000 
      11      0.066  3.5000000 
      12      0.066  3.5000000 
      13      0.030  2.5000000 
      14      0.030  2.5000000 
      15      0.030  2.5000000 
      16      0.030  2.5000000 
      17      0.030  2.5000000 
      18      0.030  2.5000000 
      19      0.030  2.5000000 
      20      0.030  2.5000000 
      21      0.030  2.5000000 
      22      0.030  2.5000000 
      23      0.030  2.5000000 
      24      0.030  2.5000000 
      25      0.030  2.5000000 
      26      0.030  2.5000000 
      27      0.030  2.5000000 
      28      0.030  2.5000000 
      29      0.030  2.5000000 
      30      0.030  2.5000000 
      31      0.030  2.5000000 
      32      0.030  2.5000000 
      33      0.030  2.5000000 
      34      0.030  2.5000000 
      35      0.030  2.5000000 
      36      0.030  2.5000000 
      37      0.030  2.5000000 
      38      0.030  2.5000000 

Bond Coeffs 

       1   268.0000     1.5290 
       2   268.0000     1.5290 
       3   268.0000     1.5290 
       4   268.0000     1.5290 
       5   268.0000     1.5290 
       6   268.0000     1.5290 
       7   268.0000     1.5290 
       8   268.0000     1.5290 
       9   268.0000     1.5290 
      10   268.0000     1.5290 
      11   268.0000     1.5290 
      12   340.0000     1.0900 
      13   340.0000     1.0900 
      14   340.0000     1.0900 
      15   340.0000     1.0900 
      16   340.0000     1.0900 
      17   340.0000     1.0900 
      18   340.0000     1.0900 
      19   340.0000     1.0900 
      20   340.0000     1.0900 
      21   340.0000     1.0900 
      22   340.0000     1.0900 
      23   340.0000     1.0900 
      24   340.0000     1.0900 
      25   340.0000     1.0900 
      26   340.0000     1.0900 
      27   340.0000     1.0900 
      28   340.0000     1.0900 
      29   340.0000     1.0900 
      30   340.0000     1.0900 
      31   340.0000     1.0900 
      32   340.0000     1.0900 
      33   340.0000     1.0900 
      34   340.0000     1.0900 
      35   340.0000     1.0900 
      36   340.0000     1.0900 
      37   340.0000     1.0900 

Angle Coeffs 

       1     58.350    112.700
       2     58.350    112.700
       3     58.350    112.700
       4     58.350    112.700
       5     58.350    112.700
       6     58.350    112.700
       7     58.350    112.700
       8     58.350    112.700
       9     58.350    112.700
      10     58.350    112.700
      11     37.500    110.700
      12     37.500    110.700
      13     37.500    110.700
      14     37.500    110.700
      15     37.500    110.700
      16     37.500    110.700
      17     37.500    110.700
      18     37.500    110.700
      19     37.500    110.700
      20     37.500    110.700
      21     37.500    110.700
      22     37.500    110.700
      23     37.500    110.700
      24     37.500    110.700
      25     37.500    110.700
      26     37.500    110.700
      27     37.500    110.700
      28     37.500    110.700
      29     37.500    110.700
      30     37.500    110.700
      31     37.500    110.700
      32     37.500    110.700
      33     37.500    110.700
      34     37.500    110.700
      35     37.500    110.700
      36     37.500    110.700
      37     37.500    110.700
      38     37.500    110.700
      39     37.500    110.700
      40     37.500    110.700
      41     33.000    107.800
      42     33.000    107.800
      43     37.500    110.700
      44     37.500    110.700
      45     37.500    110.700
      46     37.500    110.700
      47     37.500    110.700
      48     37.500    110.700
      49     33.000    107.800
      50     37.500    110.700
      51     37.500    110.700
      52     33.000    107.800
      53     37.500    110.700
      54     37.500    110.700
      55     33.000    107.800
      56     33.000    107.800
      57     33.000    107.800
      58     33.000    107.800
      59     37.500    110.700
      60     37.500    110.700
      61     33.000    107.800
      62     33.000    107.800
      63     33.000    107.800
      64     33.000    107.800
      65     37.500    110.700
      66     37.500    110.700
      67     37.500    110.700
      68     33.000    107.800
      69     37.500    110.700
      70     33.000    107.800
      71     33.000    107.800
      72     33.000    107.800

Dihedral Coeffs  

       1      1.300     -0.200      0.200      0.000 
       2      1.300     -0.200      0.200      0.000 
       3      1.300     -0.200      0.200      0.000 
       4      1.300     -0.200      0.200      0.000 
       5      1.300     -0.200      0.200      0.000 
       6      1.300     -0.200      0.200      0.000 
       7      1.300     -0.200      0.200      0.000 
       8      1.300     -0.200      0.200      0.000 
       9      1.300     -0.200      0.200      0.000 
      10      0.000      0.000      0.300      0.000 
      11      0.000      0.000      0.300      0.000 
      12      0.000      0.000      0.300      0.000 
      13      0.000      0.000      0.300      0.000 
      14      0.000      0.000      0.300      0.000 
      15      0.000      0.000      0.300      0.000 
      16      0.000      0.000      0.300      0.000 
      17      0.000      0.000      0.300      0.000 
      18      0.000      0.000      0.300      0.000 
      19      0.000      0.000      0.300      0.000 
      20      0.000      0.000      0.300      0.000 
      21      0.000      0.000      0.300      0.000 
      22      0.000      0.000      0.300      0.000 
      23      0.000      0.000      0.300      0.000 
      24      0.000      0.000      0.300      0.000 
      25      0.000      0.000      0.300      0.000 
      26      0.000      0.000      0.300      0.000 
      27      0.000      0.000      0.300      0.000 
      28      0.000      0.000      0.300      0.000 
      29      0.000      0.000      0.300      0.000 
      30      0.000      0.000      0.300      0.000 
      31      0.000      0.000      0.300      0.000 
      32      0.000      0.000      0.300      0.000 
      33      0.000      0.000      0.300      0.000 
      34      0.000      0.000      0.300      0.000 
      35      0.000      0.000      0.300      0.000 
      36      0.000      0.000      0.300      0.000 
      37      0.000      0.000      0.300      0.000 
      38      0.000      0.000      0.300      0.000 
      39      0.000      0.000      0.300      0.000 
      40      0.000      0.000      0.300      0.000 
      41      0.000      0.000      0.300      0.000 
      42      0.000      0.000      0.300      0.000 
      43      0.000      0.000      0.300      0.000 
      44      0.000      0.000      0.300      0.000 
      45      0.000      0.000      0.300      0.000 
      46      0.000      0.000      0.300      0.000 
      47      0.000      0.000      0.300      0.000 
      48      0.000      0.000      0.300      0.000 
      49      0.000      0.000      0.300      0.000 
      50      0.000      0.000      0.300      0.000 
      51      0.000      0.000      0.300      0.000 
      52      0.000      0.000      0.300      0.000 
      53      0.000      0.000      0.300      0.000 
      54      0.000      0.000      0.300      0.000 
      55      0.000      0.000      0.300      0.000 
      56      0.000      0.000      0.300      0.000 
      57      0.000      0.000      0.300      0.000 
      58      0.000      0.000      0.300      0.000 
      59      0.000      0.000      0.300      0.000 
      60      0.000      0.000      0.300      0.000 
      61      0.000      0.000      0.300      0.000 
      62      0.000      0.000      0.300      0.000 
      63      0.000      0.000      0.300      0.000 
      64      0.000      0.000      0.300      0.000 
      65      0.000      0.000      0.300      0.000 
      66      0.000      0.000      0.300      0.000 
      67      0.000      0.000      0.300      0.000 
      68      0.000      0.000      0.300      0.000 
      69      0.000      0.000      0.300      0.000 
      70      0.000      0.000      0.300      0.000 
      71      0.000      0.000      0.300      0.000 
      72      0.000      0.000      0.300      0.000 
      73      0.000      0.000      0.300      0.000 
      74      0.000      0.000      0.300      0.000 
      75      0.000      0.000      0.300      0.000 
      76      0.000      0.000      0.300      0.000 
      77      0.000      0.000      0.300      0.000 
      78      0.000      0.000      0.300      0.000 
      79      0.000      0.000      0.300      0.000 
      80      0.000      0.000      0.300      0.000 
      81      0.000      0.000      0.300      0.000 
      82      0.000      0.000      0.300      0.000 
      83      0.000      0.000      0.300      0.000 
      84      0.000      0.000      0.300      0.000 
      85      0.000      0.000      0.300      0.000 
      86      0.000      0.000      0.300      0.000 
      87      0.000      0.000      0.300      0.000 
      88      0.000      0.000      0.300      0.000 
      89      0.000      0.000      0.300      0.000 
      90      0.000      0.000      0.300      0.000 
      91      0.000      0.000      0.300      0.000 
      92      0.000      0.000      0.300      0.000 
      93      0.000      0.000      0.300      0.000 
      94      0.000      0.000      0.300      0.000 
      95      0.000      0.000      0.300      0.000 
      96      0.000      0.000      0.300      0.000 
      97      0.000      0.000      0.300      0.000 
      98      0.000      0.000      0.300      0.000 
      99      0.000      0.000      0.300      0.000 

Improper Coeffs 

       1      0.000      -1       2 
       2      0.000      -1       2 
       3      0.000      -1       2 
       4      0.000      -1       2 
       5      0.000      -1       2 
       6      0.000      -1       2 
       7      0.000      -1       2 
       8      0.000      -1       2 
       9      0.000      -1       2 
      10      0.000      -1       2 
      11      0.000      -1       2 
      12      0.000      -1       2 
      13      0.000      -1       2 
      14      0.000      -1       2 
      15      0.000      -1       2 
      16      0.000      -1       2 
      17      0.000      -1       2 
      18      0.000      -1       2 
      19      0.000      -1       2 
      20      0.000      -1       2 
      21      0.000      -1       2 
      22      0.000      -1       2 
      23      0.000      -1       2 
      24      0.000      -1       2 

Atoms 

     1      1      1 -0.23880000    1.000  1.00000  0.00000
     2      1      2 -0.17940000   -0.520  1.00000  0.00000
     3      1      3 -0.17850000   -1.075  1.00000  1.42302
     4      1      4 -0.17900000   -2.603  0.99820  1.42466
     5      1      5 -0.17900000   -3.149  1.00002  2.85230
     6      1      6 -0.17900000   -4.677  0.99643  2.86050
     7      1      7 -0.17890000   -5.220  1.00006  4.28930
     8      1      8 -0.17910000   -6.748  0.99466  4.29586
     9      1      9 -0.17910000   -7.296  1.00007  5.72302
    10      1     10 -0.17850000   -8.825  0.99283  5.72305
    11      1     11 -0.17920000   -9.381  0.99997  7.14561
    12      1     12 -0.23880000  -10.901  0.99454  7.14235
    13      1     13 0.08070000    1.379  1.00130 -1.02684
    14      1     14 0.08070000    1.390  0.11074  0.50548
    15      1     15 0.08070000    1.391  1.88693  0.50848
    16      1     16 0.08830000   -0.880  0.11712 -0.54071
    17      1     17 0.08830000   -0.880  1.88393 -0.53993
    18      1     18 0.08930000   -0.708  1.88362  1.95966
    19      1     19 0.08930000   -0.706  0.11783  1.96042
    20      1     20 0.08930000   -2.971  0.11303  0.89097
    21      1     21 0.08930000   -2.973  1.87993  0.88695
    22      1     22 0.08940000   -2.781  1.88544  3.38457
    23      1     23 0.08940000   -2.777  0.11857  3.38848
    24      1     24 0.08940000   -5.046  0.11060  2.32892
    25      1     25 0.08940000   -5.050  1.87687  2.32282
    26      1     26 0.08940000   -4.853  1.88651  4.82022
    27      1     27 0.08940000   -4.846  0.12032  4.82713
    28      1     28 0.08940000   -7.114  0.10719  3.76522
    29      1     29 0.08940000   -7.120  1.87407  3.75608
    30      1     30 0.08930000   -6.931  1.88787  6.25362
    31      1     31 0.08930000   -6.923  0.12177  6.26351
    32      1     32 0.08940000   -9.187  0.10455  5.19126
    33      1     33 0.08940000   -9.194  1.87054  5.17896
    34      1     34 0.08840000   -9.024  1.88774  7.68017
    35      1     35 0.08840000   -9.019  0.12092  7.69120
    36      1     36 0.08070000  -11.294  1.87767  6.62822
    37      1     37 0.08070000  -11.282  1.00106  8.16825
    38      1     38 0.08070000  -11.288  0.10305  6.63880

Bonds 

     1      1      2      1
     2      2      3      2
     3      3      4      3
     4      4      5      4
     5      5      6      5
     6      6      7      6
     7      7      8      7
     8      8      9      8
     9      9     10      9
    10     10     11     10
    11     11     12     11
    12     12     13      1
    13     13     14      1
    14     14     15      1
    15     15     16      2
    16     16     17      2
    17     17     18      3
    18     18     19      3
    19     19     20      4
    20     20     21      4
    21     21     22      5
    22     22     23      5
    23     23     24      6
    24     24     25      6
    25     25     26      7
    26     26     27      7
    27     27     28      8
    28     28     29      8
    29     29     30      9
    30     30     31      9
    31     31     32     10
    32     32     33     10
    33     33     34     11
    34     34     35     11
    35     35     36     12
    36     36     37     12
    37     37     38     12

Angles 

     1      1      1      2      3
     2      2      2      3      4
     3      3      3      4      5
     4      4      4      5      6
     5      5      5      6      7
     6      6      6      7      8
     7      7      7      8      9
     8      8      8      9     10
     9      9      9     10     11
    10     10     10     11     12
    11     11      2      1     13
    12     12      2      1     14
    13     13      2      1     15
    14     14      1      2     16
    15     15      1      2     17
    16     16      2      3     18
    17     17      2      3     19
    18     18      3      4     20
    19     19      3      4     21
    20     20      4      5     22
    21     21      4      5     23
    22     22      5      6     24
    23     23      5      6     25
    24     24      6      7     26
    25     25      6      7     27
    26     26      7      8     28
    27     27      7      8     29
    28     28      8      9     30
    29     29      8      9     31
    30     30      9     10     32
    31     31      9     10     33
    32     32     10     11     34
    33     33     10     11     35
    34     34     11     12     36
    35     35     11     12     37
    36     36     11     12     38
    37     37     10      9     30
    38     38      8      7     27
    39     39      7      6     24
    40     40      9      8     28
    41     41     22      5     23
    42     42     37     12     38
    43     43      6      5     22
    44     44      9      8     29
    45     45      3      2     17
    46     46     12     11     35
    47     47      7      6     25
    48     48      4      3     19
    49     49     28      8     29
    50     50     11     10     32
    51     51      8      7     26
    52     52     36     12     37
    53     53      3      2     16
    54     54      4      3     18
    55     55     30      9     31
    56     56     16      2     17
    57     57     13      1     14
    58     58     14      1     15
    59     59     10      9     31
    60     60     12     11     34
    61     61     26      7     27
    62     62     34     11     35
    63     63     13      1     15
    64     64     24      6     25
    65     65      5      4     20
    66     66      6      5     23
    67     67      5      4     21
    68     68     18      3     19
    69     69     11     10     33
    70     70     36     12     38
    71     71     20      4     21
    72     72     32     10     33

Dihedrals

     1      1      4      3      2      1 
     2      2      5      4      3      2 
     3      3      6      5      4      3 
     4      4      7      6      5      4 
     5      5      8      7      6      5 
     6      6      9      8      7      6 
     7      7     10      9      8      7 
     8      8     11     10      9      8 
     9      9     12     11     10      9 
    10     10     13      1      2      3 
    11     11     36     12     11     10 
    12     12     35     11     10     33 
    13     13     28      8      9     10 
    14     14     35     11     10     32 
    15     15     19      3      2     16 
    16     16     24      6      5     22 
    17     17     33     10      9     30 
    18     18     32     10      9     31 
    19     19     26      7      6     25 
    20     20     27      7      6     24 
    21     21     20      4      3     18 
    22     22     18      3      2     17 
    23     23     25      6      7      8 
    24     24     23      5      6      7 
    25     25     32     10      9     30 
    26     26     29      8      7     27 
    27     27     17      2      3      4 
    28     28     16      2      3      4 
    29     29     23      5      4     20 
    30     30     27      7      8      9 
    31     31     32     10     11     12 
    32     32     35     11     10      9 
    33     33     19      3      2      1 
    34     34     37     12     11     10 
    35     35     25      6      5     23 
    36     36     28      8      7     26 
    37     37     32     10      9      8 
    38     38     21      4      3     19 
    39     39     17      2      1     15 
    40     40     26      7      6     24 
    41     41     22      5      4      3 
    42     42     23      5      4     21 
    43     43     31      9      8     28 
    44     44     30      9      8     29 
    45     45     17      2      1     13 
    46     46     16      2      1     14 
    47     47     28      8      7     27 
    48     48     29      8      7     26 
    49     49     18      3      2     16 
    50     50     18      3      2      1 
    51     51     23      5      4      3 
    52     52     37     12     11     35 
    53     53     20      4      5      6 
    54     54     38     12     11     34 
    55     55     21      4      3      2 
    56     56     31      9     10     11 
    57     57     18      3      4      5 
    58     58     30      9      8     28 
    59     59     29      8      9     10 
    60     60     30      9      8      7 
    61     61     34     11     10     32 
    62     62     24      6      5      4 
    63     63     22      5      4     21 
    64     64     30      9     10     11 
    65     65     22      5      6      7 
    66     66     34     11     10      9 
    67     67     20      4      3      2 
    68     68     24      6      5     23 
    69     69     25      6      5     22 
    70     70     37     12     11     34 
    71     71     36     12     11     35 
    72     72     27      7      6     25 
    73     73     31      9      8     29 
    74     74     15      1      2      3 
    75     75     27      7      6      5 
    76     76     38     12     11     35 
    77     77     24      6      7      8 
    78     78     25      6      5      4 
    79     79     33     10     11     12 
    80     80     22      5      4     20 
    81     81     33     10      9      8 
    82     82     34     11     10     33 
    83     83     29      8      7      6 
    84     84     26      7      8      9 
    85     85     36     12     11     34 
    86     86     16      2      1     13 
    87     87     19      3      2     17 
    88     88     20      4      3     19 
    89     89     21      4      3     18 
    90     90     21      4      5      6 
    91     91     31      9      8      7 
    92     92     19      3      4      5 
    93     93     38     12     11     10 
    94     94     26      7      6      5 
    95     95     14      1      2      3 
    96     96     33     10      9     31 
    97     97     28      8      7      6 
    98     98     16      2      1     15 
    99     99     17      2      1     14 

Impropers

     1      1      1      2     13     14 
     2      2      1      2     13     15 
     3      3      2      1      3     16 
     4      4      2     17      3      1 
     5      5      3     18      4      2 
     6      6      3      2     19      4 
     7      7      4      3     20      5 
     8      8      4      5      3     21 
     9      9      5      4     22      6 
    10     10      5      4      6     23 
    11     11      6      5      7     24 
    12     12      6     25      5      7 
    13     13      7     26      6      8 
    14     14      7     27      6      8 
    15     15      8      9     28      7 
    16     16      8      9     29      7 
    17     17      9     10     30      8 
    18     18      9     10     31      8 
    19     19     10      9     11     32 
    20     20     10     33     11      9 
    21     21     11     34     12     10 
    22     22     11     10     35     12 
    23     23     12     36     11     37 
    24     24     12     36     11     38 

