#C12_acid

38 atoms
6 atom types

37 bonds
6 bond types

70 angles
9 angle types

98 dihedrals
8 dihedral types

23 impropers
2 improper types

-0.8906637189499  0.897366017673458  xlo xhi
-1.75222214593429  1.43097954219735  ylo yhi
-1.09240309561038  14.7244576804733  zlo zhi

Masses

1  12.011
2  12.011
3  15.999
4  15.999
5  1.008
6  1.008

Pair Coeffs

1  0.066  3.5
2  0.07  3.55
3  0.21  2.96
4  0.17  3.12
5  0.03  2.5
6  0.0  0.0

Bond Coeffs

1  268.0  1.529
2  317.0  1.522
3  570.0  1.229
4  450.0  1.364
5  340.0  1.09
6  553.0  0.945

Angle Coeffs

1  58.35  112.7
2  63.0  111.1
3  80.0  120.4
4  70.0  108.0
5  37.5  110.7
6  35.0  113.0
7  33.0  107.8
8  80.0  121.0
9  35.0  109.5

Dihedral Coeffs

1  1.3  -0.2  0.2  0.0
2  -2.06  -0.313  0.315  0.0
3  0.0  0.0  0.0  0.0
4  0.0  0.0  0.3  0.0
5  1.5  5.5  0.0  0.0
6  0.0  0.0  -0.1  0.0
7  1.0  0.546  0.45  0.0
8  0.0  5.5  0.0  0.0

Improper Coeffs

1  10.5  -1.0  2.0
2  0.0  -1.0  2.0

Atoms # full

1  1  1  -0.2389  -8.61520628981579e-19    5.0771524284808e-16    13.8743498681055 
2  1  1  -0.1794  -0.00364560148595549    0.777245230808363    12.5669411482419 
3  1  1  -0.1784   0.00322892137848896   -0.163946534824407    11.3640465606572 
4  1  1  -0.1791  -0.0022144743644187    0.614036716330224    10.0489380121086 
5  1  1  -0.1789   0.00291546364958799   -0.335165144281606    8.85059330387689 
6  1  1  -0.179  -0.000690242633892677    0.437199150836168    7.53213920148673 
7  1  1  -0.1785   0.00263988059085196   -0.51383529039086    6.33503679555844 
8  1  1  -0.1785   0.000816414408785222    0.264170316052783    5.01993144319562 
9  1  1  -0.1796   0.00231635039635612   -0.674095513553861    3.81297444077814 
10  1  1  -0.1708  -0.001351601444553    0.124128687187872    2.50873067288829 
11  1  1  -0.2603   0.00186229443759726   -0.791641470196054    1.28722153067188 
12  1  2   0.5097   0    0    0 
13  1  3  -0.4443  -0.00360195475944511    1.21705369776643   -0.0838388828347185 
14  1  4  -0.5603   0.00123720606441208   -0.800368786823928   -1.09240309561038 
15  1  5   0.0809  -0.00630112527268026    0.688272342006864    14.7244576804733 
16  1  5   0.0809   0.89249464591775   -0.629169311458365    13.9515387930051 
17  1  5   0.0809  -0.883557662563853   -0.642097387473262    13.9488055188294 
18  1  5   0.0886   0.87535214704272    1.43097954219735    12.535480749416 
19  1  5   0.0886  -0.8906637189499    1.42010769278    12.5339419016067 
20  1  5   0.0892  -0.874884422531837   -0.820021617896954    11.4069099905011 
21  1  5   0.0892   0.890752106994065   -0.807450987856983    11.407133069242 
22  1  5   0.09   0.87695950412171    1.26852811068483    10.0051301330384 
23  1  5   0.09  -0.889903394669258    1.25690405033404    10.005473202908 
24  1  5   0.0892  -0.877180095780049   -0.988084453985104    8.89650171583529 
25  1  5   0.0892   0.889618426048852   -0.979098865962117    8.89691701222429 
26  1  5   0.0909   0.880250116270478    1.08925162635291    7.48687647702253 
27  1  5   0.0909  -0.886650383490776    1.08205335270445    7.48752401073657 
28  1  5   0.0892  -0.879028390233418   -1.16455603205998    6.3799298861552 
29  1  5   0.0892   0.887965793364338   -1.1595529975413    6.37914040702255 
30  1  5   0.0937   0.882788968538722    0.915285342699991    4.97876201356973 
31  1  5   0.0937  -0.883654418967518    0.911811048313999    4.97929541210518 
32  1  5   0.0882  -0.879766401048667   -1.32456825341492    3.84987253288096 
33  1  5   0.0882   0.887561922941395   -1.32018205911857    3.84871541487884 
34  1  5   0.1109   0.876693760868247    0.781200916404472    2.47925729823742 
35  1  5   0.1109  -0.884557079211109    0.774071916416885    2.47993026104207 
36  1  5   0.1212  -0.889864755037358   -1.4284105007923    1.30088228497761 
37  1  5   0.1212   0.897366017673458   -1.42298550383927    1.30145060140145 
38  1  6   0.4511   0.00311785753243542   -1.75222214593429   -0.879983937104442 

Bonds

1  1  2  1
2  1  3  2
3  1  4  3
4  1  5  4
5  1  6  5
6  1  7  6
7  1  8  7
8  1  9  8
9  1  10  9
10  1  11  10
11  2  12  11
12  3  13  12
13  4  14  12
14  5  15  1
15  5  16  1
16  5  17  1
17  5  18  2
18  5  19  2
19  5  20  3
20  5  21  3
21  5  22  4
22  5  23  4
23  5  24  5
24  5  25  5
25  5  26  6
26  5  27  6
27  5  28  7
28  5  29  7
29  5  30  8
30  5  31  8
31  5  32  9
32  5  33  9
33  5  34  10
34  5  35  10
35  5  36  11
36  5  37  11
37  6  38  14

Angles

1  1  1  2  3
2  1  2  3  4
3  1  3  4  5
4  1  4  5  6
5  1  5  6  7
6  1  6  7  8
7  1  7  8  9
8  1  8  9  10
9  1  9  10  11
10  2  10  11  12
11  3  11  12  13
12  4  11  12  14
13  5  2  1  15
14  5  2  1  16
15  5  2  1  17
16  5  1  2  18
17  5  1  2  19
18  5  2  3  20
19  5  2  3  21
20  5  3  4  22
21  5  3  4  23
22  5  4  5  24
23  5  4  5  25
24  5  5  6  26
25  5  5  6  27
26  5  6  7  28
27  5  6  7  29
28  5  7  8  30
29  5  7  8  31
30  5  8  9  32
31  5  8  9  33
32  5  9  10  34
33  5  9  10  35
34  5  10  11  36
35  5  10  11  37
36  6  12  14  38
37  5  9  8  30
38  7  24  5  25
39  5  6  5  24
40  8  13  12  14
41  9  12  11  37
42  5  3  2  18
43  5  7  6  27
44  5  11  10  34
45  9  12  11  36
46  7  18  2  19
47  7  16  1  17
48  7  15  1  16
49  5  5  4  23
50  5  7  6  26
51  7  26  6  27
52  5  8  7  29
53  5  8  7  28
54  5  11  10  35
55  5  5  4  22
56  7  28  7  29
57  7  34  10  35
58  5  3  2  19
59  7  36  11  37
60  5  4  3  21
61  7  22  4  23
62  7  15  1  17
63  5  10  9  33
64  7  30  8  31
65  5  6  5  25
66  7  32  9  33
67  5  9  8  31
68  5  4  3  20
69  5  10  9  32
70  7  20  3  21

Dihedrals

1  1  4  3  2  1
2  1  5  4  3  2
3  1  6  5  4  3
4  1  7  6  5  4
5  1  8  7  6  5
6  1  9  8  7  6
7  1  10  9  8  7
8  1  11  10  9  8
9  2  12  11  10  9
10  3  13  12  11  10
11  4  15  1  2  3
12  5  38  14  12  11
13  4  23  4  3  21
14  4  31  8  7  29
15  6  35  10  11  12
16  4  35  10  9  8
17  7  14  12  11  10
18  4  28  7  8  9
19  3  36  11  12  13
20  4  25  5  4  3
21  4  31  8  7  6
22  4  28  7  6  26
23  4  32  9  10  11
24  4  37  11  10  35
25  4  25  5  4  23
26  4  20  3  2  19
27  4  21  3  2  18
28  6  34  10  11  12
29  4  25  5  6  7
30  4  37  11  10  9
31  4  29  7  8  9
32  4  33  9  8  7
33  4  30  8  9  10
34  4  27  6  5  24
35  4  28  7  6  5
36  4  34  10  9  32
37  4  30  8  7  28
38  4  18  2  1  15
39  8  38  14  12  13
40  4  29  7  6  26
41  4  28  7  6  27
42  4  30  8  7  6
43  4  26  6  5  4
44  4  23  4  5  6
45  4  35  10  9  33
46  4  20  3  2  1
47  4  20  3  2  18
48  4  22  4  3  20
49  3  36  11  12  14
50  3  37  11  12  13
51  4  27  6  5  25
52  4  19  2  1  16
53  4  35  10  9  32
54  4  34  10  9  33
55  4  24  5  4  23
56  4  25  5  4  22
57  4  22  4  3  2
58  3  37  11  12  14
59  4  20  3  4  5
60  4  32  9  8  30
61  4  24  5  6  7
62  4  27  6  5  4
63  4  23  4  3  2
64  4  18  2  1  17
65  4  34  10  9  8
66  4  26  6  5  24
67  4  21  3  2  19
68  4  21  3  4  5
69  4  31  8  9  10
70  4  33  9  10  11
71  4  24  5  4  3
72  4  37  11  10  34
73  4  36  11  10  35
74  4  32  9  8  7
75  4  27  6  7  8
76  4  17  1  2  3
77  4  31  8  7  28
78  4  30  8  7  29
79  4  24  5  4  22
80  4  19  2  3  4
81  4  29  7  6  27
82  4  26  6  7  8
83  4  29  7  6  5
84  4  36  11  10  34
85  4  32  9  8  31
86  4  33  9  8  30
87  4  23  4  3  20
88  4  22  4  3  21
89  4  36  11  10  9
90  4  18  2  3  4
91  4  19  2  1  17
92  4  21  3  2  1
93  4  22  4  5  6
94  4  33  9  8  31
95  4  16  1  2  3
96  4  26  6  5  25
97  4  18  2  1  16
98  4  19  2  1  15

Impropers

1  1  12  11  13  14
2  2  1  2  15  16
3  2  1  17  15  2
4  2  2  1  18  3
5  2  2  1  19  3
6  2  3  4  2  20
7  2  3  2  4  21
8  2  4  3  5  22
9  2  4  3  5  23
10  2  5  4  6  24
11  2  5  25  4  6
12  2  6  26  5  7
13  2  6  27  5  7
14  2  7  28  6  8
15  2  7  29  6  8
16  2  8  9  30  7
17  2  8  9  7  31
18  2  9  10  8  32
19  2  9  33  10  8
20  2  10  9  34  11
21  2  10  9  35  11
22  2  11  12  10  36
23  2  11  10  12  37
