#C8: OctaneThiolate

26 atoms
3 atom types

25 bonds
3 bond types

48 angles
5 angle types

63 dihedrals
4 dihedral types

16 impropers
1 improper types

-0.891192912887167  0.889166888255702  xlo xhi
-1.38101901590831  1.39223767091663  ylo yhi
-1.36777415199806  9.70183878255365  zlo zhi

Masses

1  12.011
2  32.06
3  1.008

Pair Coeffs

1  0.066  3.5
2  0.355  3.55
3  0.03  2.5

Bond Coeffs

1  268.0  1.529
2  340.0  1.77
3  340.0  1.09

Angle Coeffs

1  58.35  112.7
2  50.0  108.6
3  37.5  110.7
4  33.0  107.8
5  35.0  109.5

Dihedral Coeffs

1  1.3  -0.2  0.2  0.0
2  1.262  -0.198  0.465  0.0
3  0.0  0.0  0.3  0.0
4  0.0  0.0  0.452  0.0

Improper Coeffs

1  0.0  -1.0  2.0

Atoms # full

1  1  1  -0.2082  -2.21487309863955e-18    6.4597326758209e-15    8.87649353269634 
2  1  1  -0.158   0.00346375927149768   -0.730863504884552    7.54374204063206 
3  1  1  -0.157   0.00063218386773243    0.247835840676294    6.36949053827854 
4  1  1  -0.158   0.0023211966787358   -0.488799633181842    5.02963522687752 
5  1  1  -0.1565   0.0012863379383935    0.493304045428622    3.85694299541729 
6  1  1  -0.1682   0.00117063064542894   -0.241899993570239    2.51629801345839 
7  1  1  -0.1508   0.0019353429023576    0.743375516136429    1.34187106826876 
8  1  1  -0.0859   0    0    0 
9  1  2  -0.8982   0.0031842030818556    1.21931669215865   -1.36777415199806 
10  1  3   0.0657   0.00340259782481194   -0.718887075253143    9.70183878255365 
11  1  3   0.0657  -0.891192912887167    0.62778829673387    8.97584106162223 
12  1  3   0.0657   0.885258528716401    0.636219748482694    8.97583427849331 
13  1  3   0.0744  -0.877481169815573   -1.38101901590831    7.488550621904 
14  1  3   0.0744   0.889166888255702   -1.37461348197657    7.48962934709709 
15  1  3   0.076   0.881781547924851    0.89820143152387    6.43255076713334 
16  1  3   0.076  -0.883883325130805    0.893445058040509    6.432851214533 
17  1  3   0.0727  -0.880065429822134   -1.13717197870889    4.96661921043594 
18  1  3   0.0727   0.886786014268451   -1.1344104436934    4.96741579023109 
19  1  3   0.0742   0.883742445351163    1.14162262456344    3.92112917491501 
20  1  3   0.0742  -0.881905930632167    1.14054611989586    3.9216926685943 
21  1  3   0.064  -0.882551584795802   -0.888576158420833    2.452348362562 
22  1  3   0.064   0.884253189293371   -0.889441992655352    2.45285302758355 
23  1  3   0.0785   0.886721213091127    1.38923054522208    1.42110025366832 
24  1  3   0.0785  -0.880822700855521    1.39223767091663    1.42284090447183 
25  1  3   0.032  -0.877168613027893   -0.657646740666027   -0.0373875395027954 
26  1  3   0.032   0.873769424864987   -0.66214469577108   -0.0372132991460254 

Bonds

1  1  2  1
2  1  3  2
3  1  4  3
4  1  5  4
5  1  6  5
6  1  7  6
7  1  8  7
8  2  9  8
9  3  10  1
10  3  11  1
11  3  12  1
12  3  13  2
13  3  14  2
14  3  15  3
15  3  16  3
16  3  17  4
17  3  18  4
18  3  19  5
19  3  20  5
20  3  21  6
21  3  22  6
22  3  23  7
23  3  24  7
24  3  25  8
25  3  26  8

Angles

1  1  1  2  3
2  1  2  3  4
3  1  3  4  5
4  1  4  5  6
5  1  5  6  7
6  1  6  7  8
7  2  7  8  9
8  3  2  1  10
9  3  2  1  11
10  3  2  1  12
11  3  1  2  13
12  3  1  2  14
13  3  2  3  15
14  3  2  3  16
15  3  3  4  17
16  3  3  4  18
17  3  4  5  19
18  3  4  5  20
19  3  5  6  21
20  3  5  6  22
21  3  6  7  23
22  3  6  7  24
23  3  7  8  25
24  3  7  8  26
25  4  23  7  24
26  5  9  8  25
27  3  3  2  14
28  4  13  2  14
29  4  21  6  22
30  3  6  5  19
31  4  17  4  18
32  4  25  8  26
33  4  15  3  16
34  3  8  7  23
35  4  19  5  20
36  4  11  1  12
37  3  6  5  20
38  4  10  1  12
39  4  10  1  11
40  3  3  2  13
41  5  9  8  26
42  3  4  3  16
43  3  8  7  24
44  3  5  4  18
45  3  7  6  22
46  3  7  6  21
47  3  4  3  15
48  3  5  4  17

Dihedrals

1  1  4  3  2  1
2  1  5  4  3  2
3  1  6  5  4  3
4  1  7  6  5  4
5  1  8  7  6  5
6  2  9  8  7  6
7  3  10  1  2  3
8  3  18  4  3  16
9  3  15  3  4  5
10  3  17  4  3  2
11  3  15  3  2  1
12  3  18  4  3  2
13  3  21  6  5  4
14  3  20  5  4  17
15  3  26  8  7  6
16  3  11  1  2  3
17  3  18  4  3  15
18  4  23  7  8  9
19  3  25  8  7  23
20  3  15  3  2  14
21  3  17  4  5  6
22  3  22  6  5  4
23  3  15  3  2  13
24  3  21  6  5  20
25  3  20  5  4  3
26  3  22  6  5  19
27  3  19  5  4  18
28  3  16  3  2  13
29  3  24  7  6  22
30  3  17  4  3  15
31  3  18  4  5  6
32  3  13  2  1  12
33  3  14  2  1  11
34  3  21  6  5  19
35  3  12  1  2  3
36  3  20  5  4  18
37  3  19  5  4  17
38  3  16  3  4  5
39  3  19  5  6  7
40  3  26  8  7  24
41  3  20  5  6  7
42  3  19  5  4  3
43  3  13  2  1  11
44  3  14  2  1  10
45  3  23  7  6  5
46  4  24  7  8  9
47  3  16  3  2  1
48  3  14  2  3  4
49  3  13  2  3  4
50  3  16  3  2  14
51  3  22  6  7  8
52  3  25  8  7  6
53  3  13  2  1  10
54  3  23  7  6  21
55  3  22  6  5  20
56  3  17  4  3  16
57  3  24  7  6  21
58  3  23  7  6  22
59  3  14  2  1  12
60  3  21  6  7  8
61  3  24  7  6  5
62  3  25  8  7  24
63  3  26  8  7  23

Impropers

1  1  1  2  11  10
2  1  1  2  12  10
3  1  2  1  3  13
4  1  2  1  3  14
5  1  3  2  4  15
6  1  3  2  4  16
7  1  4  17  3  5
8  1  4  18  3  5
9  1  5  19  4  6
10  1  5  4  20  6
11  1  6  5  21  7
12  1  6  5  22  7
13  1  7  8  23  6
14  1  7  8  6  24
15  1  8  25  9  7
16  1  8  9  26  7
