#C16

50 atoms
2 atom types

49 bonds
2 bond types

96 angles
3 angle types

135 dihedrals
2 dihedral types

32 impropers
1 improper types

-0.885011404700596  0.891035224087986  xlo xhi
-0.812049961332183  2.09615701749448  ylo yhi
0.0223170471579923  20.6241994378735  zlo zhi

Masses

1  12.011
2  1.008

Pair Coeffs

1  0.066  3.5
2  0.03  2.5

Bond Coeffs

1  268.0  1.529
2  340.0  1.09

Angle Coeffs

1  58.35  112.7
2  37.5  110.7
3  33.0  107.8

Dihedral Coeffs

1  1.3  -0.2  0.2  0.0
2  0.0  0.0  0.3  0.0

Improper Coeffs

1  0.0  -1.0  2.0

Atoms # full

1  1  1  -0.2389   0.00261535536536128    0.640782973447591    0.886784246452303 
2  1  1  -0.1796   0.00454423700926921   -0.163130788935888    2.17679158831747 
3  1  1  -0.1787   0.00618708665645881    0.753679478864408    3.39736853529828 
4  1  1  -0.1793   0.00632485315267384   -0.0539367134787297    4.69331927004307 
5  1  1  -0.1793   0.00617081011414686    0.869121664259686    5.90954461974503 
6  1  1  -0.1794   0.00450073928828467    0.0642720046455534    7.20722212050647 
7  1  1  -0.1794   0.00615195643329882    0.989878973421518    8.42031986419216 
8  1  1  -0.1794   0.0062906147513701    0.185558401054426    9.71714609204266 
9  1  1  -0.1794   0.00614299006125132    1.11049200637259    10.9310051830248 
10  1  1  -0.1796   0.0044793008115089    0.305316764439568    12.2261232003561 
11  1  1  -0.1793   0.00252391770543343    1.22881048138543    13.4414442526869 
12  1  1  -0.1794   0.00266042182885819    0.421731666575262    14.7365515872933 
13  1  1  -0.1795   0.00250931748742586    1.34209158853718    15.9546301579175 
14  1  1  -0.1786   0.000844918377148416    0.531699984423689    17.2488539912083 
15  1  1  -0.1792   0.00247989508269374    1.44692628208229    18.470800418604 
16  1  1  -0.2389   0.00261535536536167    0.640782973447515    19.7582427335036 
17  1  2   0.0807   0.000154123874972579   -0.0298036075274561    0.0223170471579923 
18  1  2   0.0807   0.891035224087986    1.2769658853048    0.822383482328327 
19  1  2   0.0807  -0.885011404700596    1.27875889383805    0.826156490294239 
20  1  2   0.0884   0.887933818332248   -0.811866551985087    2.19654995492468 
21  1  2   0.0884  -0.878634364563801   -0.812049961332183    2.19907711545829 
22  1  2   0.0895  -0.87642292287558    1.40414011450135    3.37043590340611 
23  1  2   0.0895   0.889957274582348    1.40259525685696    3.36918856890804 
24  1  2   0.0894   0.889839103235351   -0.703273899363166    4.7233072431077 
25  1  2   0.0894  -0.876992578498626   -0.703630156161452    4.72337050589159 
26  1  2   0.0896  -0.876674437896323    1.51933577644982    5.87892384617332 
27  1  2   0.0896   0.89020054042148    1.51745187440721    5.88099934793313 
28  1  2   0.0896   0.886657058158249   -0.586725680124728    7.2385339010615 
29  1  2   0.0896  -0.880125146628603   -0.583444132678643    7.2385075406824 
30  1  2   0.0897  -0.876803291464438    1.64009307366274    8.38969924765124 
31  1  2   0.0897   0.890116852413739    1.63848037947804    8.38840883105643 
32  1  2   0.0897   0.890145248926487   -0.463286507707174    9.74744033607219 
33  1  2   0.0897  -0.877065037479431   -0.464010445319988    9.74845331951028 
34  1  2   0.0897  -0.876714043946767    1.76057302992327    10.8991232003094 
35  1  2   0.0897   0.890129638887536    1.75918406765571    10.9003289002459 
36  1  2   0.0896   0.887956844562542   -0.344110700476189    12.2584115434653 
37  1  2   0.0896  -0.878570440759305   -0.345180201553363    12.2544950040653 
38  1  2   0.0897  -0.8819732375619    1.87658018719234    13.4093026307177 
39  1  2   0.0897   0.885479934902192    1.87884606379962    13.4104284858663 
40  1  2   0.0895   0.88589257466101   -0.228137521569543    14.7650301582458 
41  1  2   0.0895  -0.880751791092259   -0.227622688258653    14.7632794158629 
42  1  2   0.0894  -0.880057053988678    1.99302133357202    15.9232766514407 
43  1  2   0.0894   0.886167878597242    1.99107795262343    15.9253160587937 
44  1  2   0.0895   0.88249216852644   -0.1201414173221    17.2737493014951 
45  1  2   0.0895  -0.883300037275017   -0.116859762335818    17.2737215278389 
46  1  2   0.0885  -0.880640982031242    2.09615701749448    18.4501718219078 
47  1  2   0.0885   0.886281060535682    2.09482168815999    18.4502325400712 
48  1  2   0.0807  -0.884976571975629    0.00411910130425486    19.8211642443457 
49  1  2   0.0807   0.00249886237038708    1.309972016907    20.6241994378735 
50  1  2   0.0807   0.88887284231657    0.00158208782002178    19.8192874444617 

Bonds

1  1  2  1
2  1  3  2
3  1  4  3
4  1  5  4
5  1  6  5
6  1  7  6
7  1  8  7
8  1  9  8
9  1  10  9
10  1  11  10
11  1  12  11
12  1  13  12
13  1  14  13
14  1  15  14
15  1  16  15
16  2  17  1
17  2  18  1
18  2  19  1
19  2  20  2
20  2  21  2
21  2  22  3
22  2  23  3
23  2  24  4
24  2  25  4
25  2  26  5
26  2  27  5
27  2  28  6
28  2  29  6
29  2  30  7
30  2  31  7
31  2  32  8
32  2  33  8
33  2  34  9
34  2  35  9
35  2  36  10
36  2  37  10
37  2  38  11
38  2  39  11
39  2  40  12
40  2  41  12
41  2  42  13
42  2  43  13
43  2  44  14
44  2  45  14
45  2  46  15
46  2  47  15
47  2  48  16
48  2  49  16
49  2  50  16

Angles

1  1  1  2  3
2  1  2  3  4
3  1  3  4  5
4  1  4  5  6
5  1  5  6  7
6  1  6  7  8
7  1  7  8  9
8  1  8  9  10
9  1  9  10  11
10  1  10  11  12
11  1  11  12  13
12  1  12  13  14
13  1  13  14  15
14  1  14  15  16
15  2  2  1  17
16  2  2  1  18
17  2  2  1  19
18  2  1  2  20
19  2  1  2  21
20  2  2  3  22
21  2  2  3  23
22  2  3  4  24
23  2  3  4  25
24  2  4  5  26
25  2  4  5  27
26  2  5  6  28
27  2  5  6  29
28  2  6  7  30
29  2  6  7  31
30  2  7  8  32
31  2  7  8  33
32  2  8  9  34
33  2  8  9  35
34  2  9  10  36
35  2  9  10  37
36  2  10  11  38
37  2  10  11  39
38  2  11  12  40
39  2  11  12  41
40  2  12  13  42
41  2  12  13  43
42  2  13  14  44
43  2  13  14  45
44  2  14  15  46
45  2  14  15  47
46  2  15  16  48
47  2  15  16  49
48  2  15  16  50
49  3  42  13  43
50  3  40  12  41
51  3  22  3  23
52  2  4  3  23
53  2  11  10  36
54  2  6  5  26
55  3  38  11  39
56  2  12  11  38
57  2  16  15  46
58  2  8  7  30
59  3  44  14  45
60  3  24  4  25
61  2  5  4  24
62  3  48  16  49
63  2  4  3  22
64  2  14  13  42
65  3  18  1  19
66  2  12  11  39
67  2  5  4  25
68  2  8  7  31
69  3  20  2  21
70  3  46  15  47
71  2  14  13  43
72  2  3  2  20
73  3  48  16  50
74  3  28  6  29
75  2  7  6  28
76  2  16  15  47
77  2  6  5  27
78  2  7  6  29
79  2  15  14  44
80  3  17  1  19
81  3  32  8  33
82  2  15  14  45
83  2  13  12  40
84  2  9  8  32
85  3  49  16  50
86  3  34  9  35
87  2  9  8  33
88  2  3  2  21
89  2  10  9  35
90  2  10  9  34
91  3  26  5  27
92  2  11  10  37
93  3  30  7  31
94  3  17  1  18
95  2  13  12  41
96  3  36  10  37

Dihedrals

1  1  4  3  2  1
2  1  5  4  3  2
3  1  6  5  4  3
4  1  7  6  5  4
5  1  8  7  6  5
6  1  9  8  7  6
7  1  10  9  8  7
8  1  11  10  9  8
9  1  12  11  10  9
10  1  13  12  11  10
11  1  14  13  12  11
12  1  15  14  13  12
13  1  16  15  14  13
14  2  17  1  2  3
15  2  48  16  15  14
16  2  31  7  6  5
17  2  31  7  8  9
18  2  28  6  7  8
19  2  35  9  10  11
20  2  25  4  3  22
21  2  43  13  12  41
22  2  47  15  14  13
23  2  44  14  15  16
24  2  36  10  9  34
25  2  47  15  14  44
26  2  46  15  14  45
27  2  38  11  10  9
28  2  21  2  1  17
29  2  20  2  1  18
30  2  24  4  3  23
31  2  19  1  2  3
32  2  38  11  10  36
33  2  23  3  2  20
34  2  22  3  2  21
35  2  33  8  7  6
36  2  28  6  5  4
37  2  47  15  14  45
38  2  30  7  6  5
39  2  25  4  5  6
40  2  23  3  4  5
41  2  39  11  10  36
42  2  38  11  10  37
43  2  34  9  8  32
44  2  32  8  7  30
45  2  41  12  11  39
46  2  32  8  7  31
47  2  33  8  7  30
48  2  48  16  15  46
49  2  29  6  5  27
50  2  46  15  14  13
51  2  49  16  15  14
52  2  44  14  13  12
53  2  49  16  15  46
54  2  48  16  15  47
55  2  26  5  4  24
56  2  30  7  6  29
57  2  31  7  6  28
58  2  34  9  10  11
59  2  34  9  8  33
60  2  35  9  8  32
61  2  45  14  13  43
62  2  21  2  1  18
63  2  40  12  11  10
64  2  20  2  1  19
65  2  43  13  12  11
66  2  37  10  9  35
67  2  32  8  9  10
68  2  24  4  3  22
69  2  35  9  8  7
70  2  35  9  8  33
71  2  26  5  4  3
72  2  41  12  11  38
73  2  38  11  12  13
74  2  41  12  11  10
75  2  39  11  10  9
76  2  27  5  6  7
77  2  36  10  11  12
78  2  37  10  9  8
79  2  30  7  8  9
80  2  37  10  9  34
81  2  36  10  9  35
82  2  32  8  7  6
83  2  42  13  12  11
84  2  50  16  15  46
85  2  49  16  15  47
86  2  45  14  15  16
87  2  27  5  4  25
88  2  33  8  7  31
89  2  39  11  12  13
90  2  22  3  2  20
91  2  42  13  12  41
92  2  29  6  7  8
93  2  34  9  8  7
94  2  24  4  3  2
95  2  36  10  9  8
96  2  24  4  5  6
97  2  20  2  1  17
98  2  25  4  3  23
99  2  43  13  12  40
100  2  50  16  15  14
101  2  44  14  13  42
102  2  23  3  2  1
103  2  20  2  3  4
104  2  31  7  6  29
105  2  40  12  11  39
106  2  40  12  13  14
107  2  23  3  2  21
108  2  21  2  3  4
109  2  28  6  5  26
110  2  26  5  6  7
111  2  29  6  5  4
112  2  22  3  2  1
113  2  39  11  10  37
114  2  27  5  4  3
115  2  18  1  2  3
116  2  45  14  13  12
117  2  37  10  11  12
118  2  21  2  1  19
119  2  29  6  5  26
120  2  28  6  5  27
121  2  42  13  14  15
122  2  25  4  3  2
123  2  22  3  4  5
124  2  41  12  13  14
125  2  46  15  14  44
126  2  50  16  15  47
127  2  40  12  11  38
128  2  33  8  9  10
129  2  45  14  13  42
130  2  26  5  4  25
131  2  27  5  4  24
132  2  43  13  14  15
133  2  44  14  13  43
134  2  42  13  12  40
135  2  30  7  6  28

Impropers

1  1  1  18  17  2
2  1  1  2  19  17
3  1  2  1  3  20
4  1  2  1  3  21
5  1  3  2  4  22
6  1  3  2  4  23
7  1  4  3  5  24
8  1  4  25  3  5
9  1  5  26  4  6
10  1  5  27  4  6
11  1  6  28  5  7
12  1  6  5  29  7
13  1  7  8  30  6
14  1  7  8  31  6
15  1  8  9  7  32
16  1  8  33  9  7
17  1  9  34  10  8
18  1  9  10  35  8
19  1  10  9  11  36
20  1  10  9  11  37
21  1  11  10  12  38
22  1  11  10  12  39
23  1  12  11  13  40
24  1  12  41  11  13
25  1  13  42  12  14
26  1  13  43  12  14
27  1  14  44  13  15
28  1  14  13  45  15
29  1  15  16  46  14
30  1  15  16  47  14
31  1  16  49  48  15
32  1  16  50  48  15
