#C16_acid

50 atoms
6 atom types

49 bonds
6 bond types

94 angles
9 angle types

134 dihedrals
8 dihedral types

31 impropers
2 improper types

-0.899191893575588  0.9038233401731  xlo xhi
-1.73404005810151  1.45650680950596  ylo yhi
-1.10772496310163  19.7257673077944  zlo zhi

Masses

1  12.011
2  12.011
3  15.999
4  15.999
5  1.008
6  1.008

Pair Coeffs

1  0.066  3.5
2  0.07  3.55
3  0.21  2.96
4  0.17  3.12
5  0.03  2.5
6  0.0  0.0

Bond Coeffs

1  268.0  1.529
2  317.0  1.522
3  570.0  1.229
4  450.0  1.364
5  340.0  1.09
6  553.0  0.945

Angle Coeffs

1  58.35  112.7
2  63.0  111.1
3  80.0  120.4
4  70.0  108.0
5  37.5  110.7
6  35.0  113.0
7  33.0  107.8
8  80.0  121.0
9  35.0  109.5

Dihedral Coeffs

1  1.3  -0.2  0.2  0.0
2  -2.06  -0.313  0.315  0.0
3  0.0  0.0  0.0  0.0
4  0.0  0.0  0.3  0.0
5  1.5  5.5  0.0  0.0
6  0.0  5.5  0.0  0.0
7  1.0  0.546  0.45  0.0
8  0.0  0.0  -0.1  0.0

Improper Coeffs

1  10.5  -1.0  2.0
2  0.0  -1.0  2.0

Atoms # full

1  1  1  -0.2388  -2.19966032742383e-17   -5.394735107044e-15    18.8627098676145 
2  1  1  -0.1796   0.00723633502508696    0.801236286177072    17.5710566443503 
3  1  1  -0.1786   0.00175071507155754   -0.11796502506597    16.3524190779333 
4  1  1  -0.1794   0.00722042492525534    0.686974395319521    15.0548155746306 
5  1  1  -0.1793   0.00349502465007586   -0.238377413440508    13.8406101078263 
6  1  1  -0.1793   0.0107513540851802    0.563251377947857    12.5421397561431 
7  1  1  -0.1795   0.00518792618352702   -0.366669063553888    11.3321507036111 
8  1  1  -0.1794   0.0142115336156505    0.43025557675417    10.0319489677721 
9  1  1  -0.1792   0.0068043264467689   -0.503782772658685    8.82527910376289 
10  1  1  -0.1796   0.0140187555455843    0.291778497391777    7.52422150853181 
11  1  1  -0.1789   0.00484178151865553   -0.638659252270064    6.31389131575303 
12  1  1  -0.1788   0.0103267300744982    0.165752891976907    5.01713760516365 
13  1  1  -0.1799   0.00306248278969929   -0.749677795332632    3.79494512946951 
14  1  1  -0.1708   0.00690262844405362    0.0747254167523006    2.50940624523248 
15  1  1  -0.2608  -0.00202193972635766   -0.817163165899674    1.2712116214685 
16  1  2   0.51   0    0    0 
17  1  3  -0.4443   0.00772732986644848    1.21850459720763   -0.0584320798620959 
18  1  4  -0.5603  -0.00943579874480621   -0.778307534541157   -1.10772496310163 
19  1  5   0.0808   0.00534148091922253    0.672276432081069    19.7257673077944 
20  1  5   0.0808   0.882561057492834   -0.644388991858209    18.9268746630174 
21  1  5   0.0808  -0.893276960668285   -0.629389936112023    18.926229930273 
22  1  5   0.0885   0.895394321318648    1.44356379805141    17.5496601265895 
23  1  5   0.0885  -0.871257279600558    1.45650680950596    17.5477914575198 
24  1  5   0.0894  -0.885567063058156   -0.761966348909003    16.3810195115553 
25  1  5   0.0894   0.880748626004098   -0.773172726817717    16.3816099916125 
26  1  5   0.0896   0.894005574851574    1.33171104021752    15.0243147173339 
27  1  5   0.0896  -0.872702407652354    1.34108474382554    15.0225851978731 
28  1  5   0.0894  -0.883460462367019   -0.883163794018366    13.8710791588711 
29  1  5   0.0894   0.882760721965071   -0.893367009918879    13.8734681757895 
30  1  5   0.09   0.898923477968703    1.2060402948805    12.5104384576713 
31  1  5   0.09  -0.867494222980158    1.21938128192681    12.5076411841475 
32  1  5   0.0895  -0.883134739083772   -1.0093551895807    11.3650917082261 
33  1  5   0.0895   0.883099719959282   -1.02317921304213    11.3675883187731 
34  1  5   0.0904   0.9038233401731    1.07131761612401    9.99800773455095 
35  1  5   0.0904  -0.862991588286172    1.08787404012699    9.99602604393691 
36  1  5   0.0895  -0.882064515918766   -1.14553069140938    8.86115260862243 
37  1  5   0.0895   0.884694151192398   -1.16040352511111    8.86182477323128 
38  1  5   0.0911   0.903356071078842    0.933480191880216    7.489498740918 
39  1  5   0.0911  -0.863009789927602    0.950262177689116    7.49001305917704 
40  1  5   0.0894  -0.883894582184911   -1.28022089876592    6.34870432447812 
41  1  5   0.0894   0.882665124509446   -1.29530413674143    6.34689128390547 
42  1  5   0.0939   0.898420751289584    0.809374309185047    4.98948264371001 
43  1  5   0.0939  -0.868082001760116    0.822511097352457    4.99008858468987 
44  1  5   0.0883  -0.884421237567797   -1.39343937464897    3.82133977848306 
45  1  5   0.0883   0.882255646533748   -1.40483478030985    3.81946145181373 
46  1  5   0.1111   0.892488623725232    0.72273147018106    2.49151782211787 
47  1  5   0.1111  -0.868905759910075    0.735974593143562    2.49457191645024 
48  1  5   0.1213  -0.899191893575588   -1.44588079467856    1.27511081020734 
49  1  5   0.1213   0.887493082344612   -1.45668307168055    1.27018214582389 
50  1  6   0.4512  -0.0159922175938561   -1.73404005810151   -0.914526840489524 

Bonds

1  1  2  1
2  1  3  2
3  1  4  3
4  1  5  4
5  1  6  5
6  1  7  6
7  1  8  7
8  1  9  8
9  1  10  9
10  1  11  10
11  1  12  11
12  1  13  12
13  1  14  13
14  1  15  14
15  2  16  15
16  3  17  16
17  4  18  16
18  5  19  1
19  5  20  1
20  5  21  1
21  5  22  2
22  5  23  2
23  5  24  3
24  5  25  3
25  5  26  4
26  5  27  4
27  5  28  5
28  5  29  5
29  5  30  6
30  5  31  6
31  5  32  7
32  5  33  7
33  5  34  8
34  5  35  8
35  5  36  9
36  5  37  9
37  5  38  10
38  5  39  10
39  5  40  11
40  5  41  11
41  5  42  12
42  5  43  12
43  5  44  13
44  5  45  13
45  5  46  14
46  5  47  14
47  5  48  15
48  5  49  15
49  6  50  18

Angles

1  1  1  2  3
2  1  2  3  4
3  1  3  4  5
4  1  4  5  6
5  1  5  6  7
6  1  6  7  8
7  1  7  8  9
8  1  8  9  10
9  1  9  10  11
10  1  10  11  12
11  1  11  12  13
12  1  12  13  14
13  1  13  14  15
14  2  14  15  16
15  3  15  16  17
16  4  15  16  18
17  5  2  1  19
18  5  2  1  20
19  5  2  1  21
20  5  1  2  22
21  5  1  2  23
22  5  2  3  24
23  5  2  3  25
24  5  3  4  26
25  5  3  4  27
26  5  4  5  28
27  5  4  5  29
28  5  5  6  30
29  5  5  6  31
30  5  6  7  32
31  5  6  7  33
32  5  7  8  34
33  5  7  8  35
34  5  8  9  36
35  5  8  9  37
36  5  9  10  38
37  5  9  10  39
38  5  10  11  40
39  5  10  11  41
40  5  11  12  42
41  5  11  12  43
42  5  12  13  44
43  5  12  13  45
44  5  13  14  46
45  5  13  14  47
46  5  14  15  48
47  5  14  15  49
48  6  16  18  50
49  5  15  14  47
50  5  11  10  38
51  5  12  11  40
52  7  19  1  21
53  5  4  3  24
54  7  46  14  47
55  7  20  1  21
56  5  5  4  27
57  5  7  6  31
58  7  24  3  25
59  5  14  13  45
60  5  5  4  26
61  5  9  8  34
62  5  8  7  32
63  5  15  14  46
64  5  8  7  33
65  7  48  15  49
66  7  38  10  39
67  5  6  5  28
68  5  13  12  42
69  7  42  12  43
70  7  32  7  33
71  7  44  13  45
72  8  17  16  18
73  5  4  3  25
74  7  26  4  27
75  7  22  2  23
76  5  13  12  43
77  7  28  5  29
78  7  36  9  37
79  7  34  8  35
80  5  7  6  30
81  9  16  15  48
82  7  30  6  31
83  5  11  10  39
84  5  3  2  22
85  5  3  2  23
86  5  9  8  35
87  9  16  15  49
88  5  10  9  37
89  5  10  9  36
90  7  40  11  41
91  7  19  1  20
92  5  6  5  29
93  5  12  11  41
94  5  14  13  44

Dihedrals

1  1  4  3  2  1
2  1  5  4  3  2
3  1  6  5  4  3
4  1  7  6  5  4
5  1  8  7  6  5
6  1  9  8  7  6
7  1  10  9  8  7
8  1  11  10  9  8
9  1  12  11  10  9
10  1  13  12  11  10
11  1  14  13  12  11
12  1  15  14  13  12
13  2  16  15  14  13
14  3  17  16  15  14
15  4  19  1  2  3
16  5  50  18  16  15
17  4  34  8  7  6
18  4  38  10  9  8
19  4  47  14  13  44
20  4  25  3  4  5
21  4  47  14  13  45
22  4  48  15  14  47
23  4  49  15  14  46
24  4  35  8  9  10
25  4  23  2  1  21
26  3  48  15  16  17
27  4  45  13  14  15
28  4  39  10  9  36
29  4  39  10  11  12
30  4  33  7  6  30
31  4  32  7  6  31
32  4  32  7  8  9
33  4  33  7  6  31
34  4  28  5  4  3
35  4  46  14  13  45
36  4  23  2  3  4
37  4  24  3  2  22
38  4  27  4  3  25
39  4  38  10  9  36
40  4  30  6  5  28
41  4  35  8  7  33
42  4  43  12  11  40
43  4  42  12  11  41
44  4  37  9  10  11
45  4  45  13  12  11
46  4  22  2  1  20
47  4  36  9  8  7
48  4  22  2  3  4
49  4  26  4  3  2
50  4  28  5  6  7
51  4  33  7  6  5
52  4  30  6  7  8
53  4  40  11  12  13
54  4  44  13  12  43
55  4  43  12  11  10
56  4  39  10  9  8
57  4  36  9  10  11
58  4  40  11  10  39
59  4  41  11  10  38
60  4  37  9  8  35
61  3  49  15  16  17
62  4  47  14  13  12
63  4  44  13  14  15
64  4  40  11  10  38
65  4  45  13  12  42
66  4  21  1  2  3
67  4  27  4  5  6
68  4  25  3  2  23
69  4  32  7  6  30
70  4  30  6  5  4
71  4  48  15  14  46
72  4  46  14  13  44
73  4  24  3  4  5
74  4  48  15  14  13
75  4  42  12  11  40
76  6  50  18  16  17
77  3  48  15  16  18
78  4  22  2  1  19
79  4  26  4  3  25
80  4  27  4  3  24
81  4  41  11  10  39
82  4  42  12  13  14
83  4  31  6  7  8
84  4  32  7  6  5
85  4  27  4  3  2
86  4  49  15  14  13
87  4  29  5  6  7
88  4  43  12  11  41
89  4  37  9  8  7
90  4  38  10  9  37
91  4  34  8  9  10
92  4  35  8  7  6
93  4  31  6  5  29
94  4  42  12  11  10
95  7  18  16  15  14
96  4  34  8  7  32
97  4  29  5  4  27
98  4  24  3  2  23
99  4  25  3  2  22
100  4  24  3  2  1
101  4  33  7  8  9
102  4  49  15  14  47
103  4  43  12  13  14
104  4  20  1  2  3
105  4  28  5  4  26
106  3  49  15  16  18
107  4  26  4  5  6
108  4  29  5  4  3
109  4  44  13  12  42
110  4  36  9  8  34
111  4  23  2  1  20
112  4  22  2  1  21
113  4  40  11  10  9
114  4  25  3  2  1
115  4  34  8  7  33
116  4  35  8  7  32
117  4  39  10  9  37
118  4  29  5  4  26
119  4  28  5  4  27
120  4  45  13  12  43
121  8  47  14  15  16
122  4  44  13  12  11
123  4  31  6  5  4
124  4  26  4  3  24
125  4  36  9  8  35
126  4  46  14  13  12
127  8  46  14  15  16
128  4  38  10  11  12
129  4  41  11  10  9
130  4  37  9  8  34
131  4  23  2  1  19
132  4  41  11  12  13
133  4  30  6  5  29
134  4  31  6  5  28

Impropers

1  1  16  17  18  15
2  2  1  2  19  20
3  2  1  2  19  21
4  2  2  1  3  22
5  2  2  1  3  23
6  2  3  2  4  24
7  2  3  25  2  4
8  2  4  26  3  5
9  2  4  27  5  3
10  2  5  4  28  6
11  2  5  4  29  6
12  2  6  5  30  7
13  2  6  7  5  31
14  2  7  8  6  32
15  2  7  33  6  8
16  2  8  9  34  7
17  2  8  9  35  7
18  2  9  10  36  8
19  2  9  10  37  8
20  2  10  9  11  38
21  2  10  9  11  39
22  2  11  10  12  40
23  2  11  41  10  12
24  2  12  42  11  13
25  2  12  43  13  11
26  2  13  12  44  14
27  2  13  12  45  14
28  2  14  13  46  15
29  2  14  15  13  47
30  2  15  16  14  48
31  2  15  49  14  16
